p cnf 32 88
10 11 -32 0
10 -11 32 0
-10 11 32 0
-10 -11 -32 0
15 22 -10 0
15 -22 10 0
-15 22 10 0
-15 -22 -10 0
30 3 -6 0
30 -3 6 0
-30 3 6 0
-30 -3 -6 0
26 12 -2 0
26 -12 2 0
-26 12 2 0
-26 -12 -2 0
8 4 -2 0
8 -4 2 0
-8 4 2 0
-8 -4 -2 0
24 23 -9 0
24 -23 9 0
-24 23 9 0
-24 -23 -9 0
6 19 1 0
6 -19 -1 0
-6 19 -1 0
-6 -19 1 0
21 29 -25 0
21 -29 25 0
-21 29 25 0
-21 -29 -25 0
7 27 28 0
7 -27 -28 0
-7 27 -28 0
-7 -27 28 0
20 1 -17 0
20 -1 17 0
-20 1 17 0
-20 -1 -17 0
20 22 28 0
20 -22 -28 0
-20 22 -28 0
-20 -22 28 0
15 17 -13 0
15 -17 13 0
-15 17 13 0
-15 -17 -13 0
31 3 2 0
31 -3 -2 0
-31 3 -2 0
-31 -3 2 0
19 5 -21 0
19 -5 21 0
-19 5 21 0
-19 -5 -21 0
16 12 -11 0
16 -12 11 0
-16 12 11 0
-16 -12 -11 0
8 16 -9 0
8 -16 9 0
-8 16 9 0
-8 -16 -9 0
14 7 -20 0
14 -7 20 0
-14 7 20 0
-14 -7 -20 0
4 23 -32 0
4 -23 32 0
-4 23 32 0
-4 -23 -32 0
14 24 -13 0
14 -24 13 0
-14 24 13 0
-14 -24 -13 0
31 27 29 0
31 -27 -29 0
-31 27 -29 0
-31 -27 29 0
25 18 -26 0
25 -18 26 0
-25 18 26 0
-25 -18 -26 0
30 18 5 0
30 -18 -5 0
-30 18 -5 0
-30 -18 5 0
