p cnf 20 86
3 -17 4 0
14 15 -16 0
9 2 -5 0
3 -12 -9 0
-15 -5 -1 0
-7 -9 -6 0
19 -7 -4 0
-11 6 13 0
-12 -1 -17 0
-20 -1 12 0
-10 14 4 0
2 -14 18 0
11 -17 -15 0
-11 -6 -9 0
-8 18 11 0
1 -8 -6 0
-2 -9 19 0
1 -19 -17 0
-2 -7 3 0
1 12 -14 0
-18 -10 -4 0
14 -16 -7 0
-11 -7 -6 0
5 10 11 0
-16 4 -11 0
-11 -1 -12 0
20 -17 18 0
16 18 15 0
-7 -2 17 0
12 17 16 0
-13 6 20 0
-14 20 -17 0
2 -15 6 0
4 17 -3 0
-6 -14 -19 0
-19 6 -7 0
-17 4 6 0
15 13 16 0
1 12 7 0
1 7 12 0
-3 -15 7 0
-11 -15 -6 0
12 -11 9 0
-15 -10 3 0
-5 -10 -17 0
17 11 19 0
-2 -8 -16 0
-20 15 10 0
17 -18 20 0
12 -15 -19 0
15 -20 4 0
15 -13 9 0
-3 -2 18 0
19 10 7 0
-3 12 20 0
12 7 -15 0
10 2 -20 0
13 14 4 0
16 5 19 0
15 -9 -8 0
-3 -17 -6 0
-4 -10 -19 0
2 -8 -20 0
-7 -5 -1 0
-9 8 2 0
-17 -5 1 0
1 -20 2 0
-9 -19 -5 0
9 -10 7 0
19 -7 -8 0
-6 10 -20 0
-3 8 6 0
-14 10 -3 0
12 6 -16 0
8 19 11 0
-15 -13 -1 0
2 4 6 0
6 12 11 0
-11 20 -4 0
8 5 -19 0
-12 -20 -1 0
3 9 -1 0
8 14 3 0
-4 20 -13 0
19 -6 9 0
16 -14 -19 0
