p cnf 26 72
2 20 -24 0
2 -20 24 0
-2 20 24 0
-2 -20 -24 0
26 3 -4 0
26 -3 4 0
-26 3 4 0
-26 -3 -4 0
18 1 8 0
18 -1 -8 0
-18 1 -8 0
-18 -1 8 0
16 25 -10 0
16 -25 10 0
-16 25 10 0
-16 -25 -10 0
24 23 -1 0
24 -23 1 0
-24 23 1 0
-24 -23 -1 0
5 13 19 0
5 -13 -19 0
-5 13 -19 0
-5 -13 19 0
20 13 -9 0
20 -13 9 0
-20 13 9 0
-20 -13 -9 0
21 6 16 0
21 -6 -16 0
-21 6 -16 0
-21 -6 16 0
22 15 26 0
22 -15 -26 0
-22 15 -26 0
-22 -15 26 0
14 12 19 0
14 -12 -19 0
-14 12 -19 0
-14 -12 19 0
5 9 7 0
5 -9 -7 0
-5 9 -7 0
-5 -9 7 0
7 17 14 0
7 -17 -14 0
-7 17 -14 0
-7 -17 14 0
18 14 -25 0
18 -14 25 0
-18 14 25 0
-18 -14 -25 0
11 15 -17 0
11 -15 17 0
-11 15 17 0
-11 -15 -17 0
22 12 21 0
22 -12 -21 0
-22 12 -21 0
-22 -12 21 0
8 5 2 0
8 -5 -2 0
-8 5 -2 0
-8 -5 2 0
4 11 -10 0
4 -11 10 0
-4 11 10 0
-4 -11 -10 0
3 6 -23 0
3 -6 23 0
-3 6 23 0
-3 -6 -23 0
