p cnf 26 112
21 9 26 0
5 20 24 0
21 13 -2 0
-21 23 -4 0
2 14 20 0
-2 26 25 0
17 25 14 0
24 -3 -10 0
-6 21 -26 0
7 19 21 0
11 -21 25 0
8 -20 9 0
17 20 -13 0
-6 -5 11 0
17 21 -5 0
-17 8 7 0
2 4 -17 0
-23 -3 8 0
1 -23 -15 0
-23 -18 -6 0
18 1 -25 0
-2 24 5 0
-20 26 -9 0
-14 -20 -6 0
-20 -9 13 0
-10 -18 12 0
-9 -26 11 0
18 2 21 0
-18 25 20 0
-22 11 9 0
18 3 -15 0
21 15 -19 0
21 -4 26 0
23 15 17 0
22 2 12 0
-22 13 24 0
-18 -1 -22 0
-19 -18 -2 0
24 20 26 0
-1 -20 -16 0
-21 10 18 0
16 -6 19 0
-10 18 -20 0
12 1 22 0
16 11 13 0
25 8 20 0
-11 26 -19 0
-10 17 5 0
22 -10 -26 0
-25 -12 1 0
24 -26 1 0
-11 -17 14 0
-2 12 -19 0
25 1 10 0
22 -18 6 0
-20 -18 21 0
19 -25 17 0
17 6 -19 0
4 10 20 0
-19 12 -22 0
20 -6 18 0
-21 7 1 0
-19 7 21 0
6 -3 -15 0
-10 12 18 0
23 11 -6 0
-20 21 4 0
11 -23 4 0
6 4 11 0
25 -7 -9 0
-7 -21 -23 0
14 16 -12 0
-9 20 -1 0
26 13 -9 0
8 -14 25 0
22 -19 -24 0
-1 -12 4 0
-19 -1 18 0
-24 -8 -26 0
-14 -4 -15 0
-4 -23 22 0
8 13 -5 0
-23 16 -5 0
-1 14 16 0
20 -5 10 0
-6 -16 10 0
-6 -15 -26 0
-17 -13 22 0
-1 -8 -14 0
14 -8 -24 0
6 2 19 0
17 -1 25 0
-9 -15 -19 0
-15 8 16 0
26 -3 20 0
12 -17 13 0
23 24 1 0
-20 26 -25 0
-16 21 -2 0
-8 -16 -10 0
-9 -2 24 0
-11 12 26 0
10 -12 3 0
-14 12 7 0
10 23 7 0
21 12 14 0
23 17 1 0
-5 13 -23 0
-7 -6 -9 0
-20 2 21 0
5 9 -3 0
-3 -13 -18 0
