p cnf 26 72
16 18 -3 0
16 -18 3 0
-16 18 3 0
-16 -18 -3 0
19 16 -9 0
19 -16 9 0
-19 16 9 0
-19 -16 -9 0
7 10 -23 0
7 -10 23 0
-7 10 23 0
-7 -10 -23 0
6 19 -14 0
6 -19 14 0
-6 19 14 0
-6 -19 -14 0
17 5 4 0
17 -5 -4 0
-17 5 -4 0
-17 -5 4 0
13 14 22 0
13 -14 -22 0
-13 14 -22 0
-13 -14 22 0
12 16 22 0
12 -16 -22 0
-12 16 -22 0
-12 -16 22 0
8 1 -15 0
8 -1 15 0
-8 1 15 0
-8 -1 -15 0
7 26 25 0
7 -26 -25 0
-7 26 -25 0
-7 -26 25 0
20 17 -24 0
20 -17 24 0
-20 17 24 0
-20 -17 -24 0
2 1 -25 0
2 -1 25 0
-2 1 25 0
-2 -1 -25 0
10 24 -11 0
10 -24 11 0
-10 24 11 0
-10 -24 -11 0
6 8 -21 0
6 -8 21 0
-6 8 21 0
-6 -8 -21 0
11 13 -12 0
11 -13 12 0
-11 13 12 0
-11 -13 -12 0
3 5 -20 0
3 -5 20 0
-3 5 20 0
-3 -5 -20 0
15 2 9 0
15 -2 -9 0
-15 2 -9 0
-15 -2 9 0
21 4 -23 0
21 -4 23 0
-21 4 23 0
-21 -4 -23 0
26 3 -18 0
26 -3 18 0
-26 3 18 0
-26 -3 -18 0
