p cnf 20 56
20 9 12 0
20 -9 -12 0
-20 9 -12 0
-20 -9 12 0
4 15 -2 0
4 -15 2 0
-4 15 2 0
-4 -15 -2 0
7 4 6 0
7 -4 -6 0
-7 4 -6 0
-7 -4 6 0
2 7 -20 0
2 -7 20 0
-2 7 20 0
-2 -7 -20 0
6 12 14 0
6 -12 -14 0
-6 12 -14 0
-6 -12 14 0
15 5 -3 0
15 -5 3 0
-15 5 3 0
-15 -5 -3 0
8 5 -10 0
8 -5 10 0
-8 5 10 0
-8 -5 -10 0
19 8 11 0
19 -8 -11 0
-19 8 -11 0
-19 -8 11 0
10 18 -6 0
10 -18 6 0
-10 18 6 0
-10 -18 -6 0
11 1 18 0
11 -1 -18 0
-11 1 -18 0
-11 -1 18 0
19 17 -16 0
19 -17 16 0
-19 17 16 0
-19 -17 -16 0
17 13 -3 0
17 -13 3 0
-17 13 3 0
-17 -13 -3 0
14 13 -9 0
14 -13 9 0
-14 13 9 0
-14 -13 -9 0
16 1 -2 0
16 -1 2 0
-16 1 2 0
-16 -1 -2 0
