c Exact XOR-to-3CNF encoding; no auxiliary variables
p cnf 800 2136
306 519 77 0
-306 -519 77 0
-306 519 -77 0
306 -519 -77 0
-729 573 712 0
729 -573 712 0
729 573 -712 0
-729 -573 -712 0
531 610 476 0
-531 -610 476 0
-531 610 -476 0
531 -610 -476 0
223 363 769 0
-223 -363 769 0
-223 363 -769 0
223 -363 -769 0
-344 784 633 0
344 -784 633 0
344 784 -633 0
-344 -784 -633 0
-126 740 791 0
126 -740 791 0
126 740 -791 0
-126 -740 -791 0
-51 406 57 0
51 -406 57 0
51 406 -57 0
-51 -406 -57 0
405 359 400 0
-405 -359 400 0
-405 359 -400 0
405 -359 -400 0
273 310 251 0
-273 -310 251 0
-273 310 -251 0
273 -310 -251 0
-378 144 718 0
378 -144 718 0
378 144 -718 0
-378 -144 -718 0
426 250 331 0
-426 -250 331 0
-426 250 -331 0
426 -250 -331 0
706 744 567 0
-706 -744 567 0
-706 744 -567 0
706 -744 -567 0
687 49 690 0
-687 -49 690 0
-687 49 -690 0
687 -49 -690 0
723 672 431 0
-723 -672 431 0
-723 672 -431 0
723 -672 -431 0
286 258 389 0
-286 -258 389 0
-286 258 -389 0
286 -258 -389 0
-25 185 362 0
25 -185 362 0
25 185 -362 0
-25 -185 -362 0
222 423 703 0
-222 -423 703 0
-222 423 -703 0
222 -423 -703 0
622 36 430 0
-622 -36 430 0
-622 36 -430 0
622 -36 -430 0
562 235 784 0
-562 -235 784 0
-562 235 -784 0
562 -235 -784 0
320 411 372 0
-320 -411 372 0
-320 411 -372 0
320 -411 -372 0
781 482 148 0
-781 -482 148 0
-781 482 -148 0
781 -482 -148 0
180 733 165 0
-180 -733 165 0
-180 733 -165 0
180 -733 -165 0
-548 770 161 0
548 -770 161 0
548 770 -161 0
-548 -770 -161 0
652 388 247 0
-652 -388 247 0
-652 388 -247 0
652 -388 -247 0
-383 600 124 0
383 -600 124 0
383 600 -124 0
-383 -600 -124 0
-656 262 166 0
656 -262 166 0
656 262 -166 0
-656 -262 -166 0
644 351 552 0
-644 -351 552 0
-644 351 -552 0
644 -351 -552 0
752 19 171 0
-752 -19 171 0
-752 19 -171 0
752 -19 -171 0
-630 676 500 0
630 -676 500 0
630 676 -500 0
-630 -676 -500 0
118 786 421 0
-118 -786 421 0
-118 786 -421 0
118 -786 -421 0
141 385 213 0
-141 -385 213 0
-141 385 -213 0
141 -385 -213 0
564 603 106 0
-564 -603 106 0
-564 603 -106 0
564 -603 -106 0
796 654 22 0
-796 -654 22 0
-796 654 -22 0
796 -654 -22 0
-387 658 464 0
387 -658 464 0
387 658 -464 0
-387 -658 -464 0
487 17 601 0
-487 -17 601 0
-487 17 -601 0
487 -17 -601 0
341 271 669 0
-341 -271 669 0
-341 271 -669 0
341 -271 -669 0
317 473 398 0
-317 -473 398 0
-317 473 -398 0
317 -473 -398 0
717 377 243 0
-717 -377 243 0
-717 377 -243 0
717 -377 -243 0
-280 252 277 0
280 -252 277 0
280 252 -277 0
-280 -252 -277 0
-545 186 592 0
545 -186 592 0
545 186 -592 0
-545 -186 -592 0
391 471 175 0
-391 -471 175 0
-391 471 -175 0
391 -471 -175 0
-170 34 327 0
170 -34 327 0
170 34 -327 0
-170 -34 -327 0
-388 142 509 0
388 -142 509 0
388 142 -509 0
-388 -142 -509 0
531 541 353 0
-531 -541 353 0
-531 541 -353 0
531 -541 -353 0
-160 23 394 0
160 -23 394 0
160 23 -394 0
-160 -23 -394 0
-272 370 499 0
272 -370 499 0
272 370 -499 0
-272 -370 -499 0
-220 229 749 0
220 -229 749 0
220 229 -749 0
-220 -229 -749 0
715 455 189 0
-715 -455 189 0
-715 455 -189 0
715 -455 -189 0
700 590 417 0
-700 -590 417 0
-700 590 -417 0
700 -590 -417 0
-154 738 726 0
154 -738 726 0
154 738 -726 0
-154 -738 -726 0
-167 101 623 0
167 -101 623 0
167 101 -623 0
-167 -101 -623 0
-511 65 71 0
511 -65 71 0
511 65 -71 0
-511 -65 -71 0
84 389 435 0
-84 -389 435 0
-84 389 -435 0
84 -389 -435 0
-800 635 260 0
800 -635 260 0
800 635 -260 0
-800 -635 -260 0
761 387 508 0
-761 -387 508 0
-761 387 -508 0
761 -387 -508 0
-705 187 469 0
705 -187 469 0
705 187 -469 0
-705 -187 -469 0
-466 790 461 0
466 -790 461 0
466 790 -461 0
-466 -790 -461 0
-795 18 728 0
795 -18 728 0
795 18 -728 0
-795 -18 -728 0
-375 159 775 0
375 -159 775 0
375 159 -775 0
-375 -159 -775 0
780 515 149 0
-780 -515 149 0
-780 515 -149 0
780 -515 -149 0
-354 408 465 0
354 -408 465 0
354 408 -465 0
-354 -408 -465 0
20 46 458 0
-20 -46 458 0
-20 46 -458 0
20 -46 -458 0
688 748 449 0
-688 -748 449 0
-688 748 -449 0
688 -748 -449 0
314 528 25 0
-314 -528 25 0
-314 528 -25 0
314 -528 -25 0
-343 366 718 0
343 -366 718 0
343 366 -718 0
-343 -366 -718 0
-81 21 695 0
81 -21 695 0
81 21 -695 0
-81 -21 -695 0
292 661 115 0
-292 -661 115 0
-292 661 -115 0
292 -661 -115 0
-532 623 94 0
532 -623 94 0
532 623 -94 0
-532 -623 -94 0
492 404 799 0
-492 -404 799 0
-492 404 -799 0
492 -404 -799 0
771 479 571 0
-771 -479 571 0
-771 479 -571 0
771 -479 -571 0
-677 650 318 0
677 -650 318 0
677 650 -318 0
-677 -650 -318 0
-482 140 713 0
482 -140 713 0
482 140 -713 0
-482 -140 -713 0
-764 629 458 0
764 -629 458 0
764 629 -458 0
-764 -629 -458 0
750 160 474 0
-750 -160 474 0
-750 160 -474 0
750 -160 -474 0
-410 756 425 0
410 -756 425 0
410 756 -425 0
-410 -756 -425 0
-232 490 297 0
232 -490 297 0
232 490 -297 0
-232 -490 -297 0
455 309 701 0
-455 -309 701 0
-455 309 -701 0
455 -309 -701 0
-116 311 706 0
116 -311 706 0
116 311 -706 0
-116 -311 -706 0
-214 332 316 0
214 -332 316 0
214 332 -316 0
-214 -332 -316 0
660 413 9 0
-660 -413 9 0
-660 413 -9 0
660 -413 -9 0
-196 6 78 0
196 -6 78 0
196 6 -78 0
-196 -6 -78 0
-162 749 343 0
162 -749 343 0
162 749 -343 0
-162 -749 -343 0
790 436 98 0
-790 -436 98 0
-790 436 -98 0
790 -436 -98 0
484 395 563 0
-484 -395 563 0
-484 395 -563 0
484 -395 -563 0
502 544 315 0
-502 -544 315 0
-502 544 -315 0
502 -544 -315 0
-645 445 615 0
645 -445 615 0
645 445 -615 0
-645 -445 -615 0
-413 121 672 0
413 -121 672 0
413 121 -672 0
-413 -121 -672 0
-494 513 89 0
494 -513 89 0
494 513 -89 0
-494 -513 -89 0
423 429 65 0
-423 -429 65 0
-423 429 -65 0
423 -429 -65 0
-793 256 58 0
793 -256 58 0
793 256 -58 0
-793 -256 -58 0
207 108 368 0
-207 -108 368 0
-207 108 -368 0
207 -108 -368 0
150 103 140 0
-150 -103 140 0
-150 103 -140 0
150 -103 -140 0
-188 26 158 0
188 -26 158 0
188 26 -158 0
-188 -26 -158 0
768 414 301 0
-768 -414 301 0
-768 414 -301 0
768 -414 -301 0
-214 203 788 0
214 -203 788 0
214 203 -788 0
-214 -203 -788 0
403 450 543 0
-403 -450 543 0
-403 450 -543 0
403 -450 -543 0
24 169 192 0
-24 -169 192 0
-24 169 -192 0
24 -169 -192 0
95 209 296 0
-95 -209 296 0
-95 209 -296 0
95 -209 -296 0
636 2 111 0
-636 -2 111 0
-636 2 -111 0
636 -2 -111 0
102 766 658 0
-102 -766 658 0
-102 766 -658 0
102 -766 -658 0
520 433 4 0
-520 -433 4 0
-520 433 -4 0
520 -433 -4 0
-305 427 1 0
305 -427 1 0
305 427 -1 0
-305 -427 -1 0
679 641 427 0
-679 -641 427 0
-679 641 -427 0
679 -641 -427 0
-777 12 782 0
777 -12 782 0
777 12 -782 0
-777 -12 -782 0
127 30 194 0
-127 -30 194 0
-127 30 -194 0
127 -30 -194 0
501 137 713 0
-501 -137 713 0
-501 137 -713 0
501 -137 -713 0
321 213 2 0
-321 -213 2 0
-321 213 -2 0
321 -213 -2 0
708 695 602 0
-708 -695 602 0
-708 695 -602 0
708 -695 -602 0
-773 134 614 0
773 -134 614 0
773 134 -614 0
-773 -134 -614 0
-714 55 602 0
714 -55 602 0
714 55 -602 0
-714 -55 -602 0
-330 530 257 0
330 -530 257 0
330 530 -257 0
-330 -530 -257 0
800 179 568 0
-800 -179 568 0
-800 179 -568 0
800 -179 -568 0
610 295 239 0
-610 -295 239 0
-610 295 -239 0
610 -295 -239 0
163 92 786 0
-163 -92 786 0
-163 92 -786 0
163 -92 -786 0
-541 300 639 0
541 -300 639 0
541 300 -639 0
-541 -300 -639 0
-582 758 316 0
582 -758 316 0
582 758 -316 0
-582 -758 -316 0
-127 166 7 0
127 -166 7 0
127 166 -7 0
-127 -166 -7 0
121 185 498 0
-121 -185 498 0
-121 185 -498 0
121 -185 -498 0
-539 332 679 0
539 -332 679 0
539 332 -679 0
-539 -332 -679 0
-438 326 286 0
438 -326 286 0
438 326 -286 0
-438 -326 -286 0
-324 703 534 0
324 -703 534 0
324 703 -534 0
-324 -703 -534 0
785 240 263 0
-785 -240 263 0
-785 240 -263 0
785 -240 -263 0
298 434 485 0
-298 -434 485 0
-298 434 -485 0
298 -434 -485 0
308 47 591 0
-308 -47 591 0
-308 47 -591 0
308 -47 -591 0
300 226 480 0
-300 -226 480 0
-300 226 -480 0
300 -226 -480 0
-468 503 732 0
468 -503 732 0
468 503 -732 0
-468 -503 -732 0
595 525 274 0
-595 -525 274 0
-595 525 -274 0
595 -525 -274 0
29 80 548 0
-29 -80 548 0
-29 80 -548 0
29 -80 -548 0
-172 329 138 0
172 -329 138 0
172 329 -138 0
-172 -329 -138 0
178 549 507 0
-178 -549 507 0
-178 549 -507 0
178 -549 -507 0
-373 152 727 0
373 -152 727 0
373 152 -727 0
-373 -152 -727 0
619 228 326 0
-619 -228 326 0
-619 228 -326 0
619 -228 -326 0
-176 767 328 0
176 -767 328 0
176 767 -328 0
-176 -767 -328 0
306 217 369 0
-306 -217 369 0
-306 217 -369 0
306 -217 -369 0
-568 126 741 0
568 -126 741 0
568 126 -741 0
-568 -126 -741 0
-187 635 195 0
187 -635 195 0
187 635 -195 0
-187 -635 -195 0
457 80 8 0
-457 -80 8 0
-457 80 -8 0
457 -80 -8 0
-422 33 402 0
422 -33 402 0
422 33 -402 0
-422 -33 -402 0
-251 673 248 0
251 -673 248 0
251 673 -248 0
-251 -673 -248 0
-128 125 432 0
128 -125 432 0
128 125 -432 0
-128 -125 -432 0
-122 553 483 0
122 -553 483 0
122 553 -483 0
-122 -553 -483 0
442 313 724 0
-442 -313 724 0
-442 313 -724 0
442 -313 -724 0
761 734 220 0
-761 -734 220 0
-761 734 -220 0
761 -734 -220 0
532 265 681 0
-532 -265 681 0
-532 265 -681 0
532 -265 -681 0
641 380 774 0
-641 -380 774 0
-641 380 -774 0
641 -380 -774 0
15 384 518 0
-15 -384 518 0
-15 384 -518 0
15 -384 -518 0
-643 505 799 0
643 -505 799 0
643 505 -799 0
-643 -505 -799 0
744 72 438 0
-744 -72 438 0
-744 72 -438 0
744 -72 -438 0
-399 434 529 0
399 -434 529 0
399 434 -529 0
-399 -434 -529 0
67 61 670 0
-67 -61 670 0
-67 61 -670 0
67 -61 -670 0
638 489 478 0
-638 -489 478 0
-638 489 -478 0
638 -489 -478 0
-165 379 223 0
165 -379 223 0
165 379 -223 0
-165 -379 -223 0
-422 554 70 0
422 -554 70 0
422 554 -70 0
-422 -554 -70 0
-216 195 268 0
216 -195 268 0
216 195 -268 0
-216 -195 -268 0
480 520 379 0
-480 -520 379 0
-480 520 -379 0
480 -520 -379 0
157 114 535 0
-157 -114 535 0
-157 114 -535 0
157 -114 -535 0
-139 401 398 0
139 -401 398 0
139 401 -398 0
-139 -401 -398 0
765 370 395 0
-765 -370 395 0
-765 370 -395 0
765 -370 -395 0
622 636 739 0
-622 -636 739 0
-622 636 -739 0
622 -636 -739 0
-139 552 91 0
139 -552 91 0
139 552 -91 0
-139 -552 -91 0
-657 612 41 0
657 -612 41 0
657 612 -41 0
-657 -612 -41 0
-248 265 234 0
248 -265 234 0
248 265 -234 0
-248 -265 -234 0
-135 105 716 0
135 -105 716 0
135 105 -716 0
-135 -105 -716 0
-312 385 437 0
312 -385 437 0
312 385 -437 0
-312 -385 -437 0
-281 285 781 0
281 -285 781 0
281 285 -781 0
-281 -285 -781 0
-45 335 106 0
45 -335 106 0
45 335 -106 0
-45 -335 -106 0
767 176 753 0
-767 -176 753 0
-767 176 -753 0
767 -176 -753 0
-373 740 563 0
373 -740 563 0
373 740 -563 0
-373 -740 -563 0
-547 504 267 0
547 -504 267 0
547 504 -267 0
-547 -504 -267 0
-545 416 382 0
545 -416 382 0
545 416 -382 0
-545 -416 -382 0
66 120 231 0
-66 -120 231 0
-66 120 -231 0
66 -120 -231 0
-11 102 719 0
11 -102 719 0
11 102 -719 0
-11 -102 -719 0
7 524 707 0
-7 -524 707 0
-7 524 -707 0
7 -524 -707 0
-464 158 673 0
464 -158 673 0
464 158 -673 0
-464 -158 -673 0
97 110 779 0
-97 -110 779 0
-97 110 -779 0
97 -110 -779 0
-465 330 13 0
465 -330 13 0
465 330 -13 0
-465 -330 -13 0
459 742 693 0
-459 -742 693 0
-459 742 -693 0
459 -742 -693 0
-712 12 206 0
712 -12 206 0
712 12 -206 0
-712 -12 -206 0
-88 91 188 0
88 -91 188 0
88 91 -188 0
-88 -91 -188 0
-446 747 82 0
446 -747 82 0
446 747 -82 0
-446 -747 -82 0
-737 760 349 0
737 -760 349 0
737 760 -349 0
-737 -760 -349 0
499 241 514 0
-499 -241 514 0
-499 241 -514 0
499 -241 -514 0
216 149 266 0
-216 -149 266 0
-216 149 -266 0
216 -149 -266 0
-184 341 378 0
184 -341 378 0
184 341 -378 0
-184 -341 -378 0
-578 604 364 0
578 -604 364 0
578 604 -364 0
-578 -604 -364 0
307 60 255 0
-307 -60 255 0
-307 60 -255 0
307 -60 -255 0
604 741 27 0
-604 -741 27 0
-604 741 -27 0
604 -741 -27 0
202 32 474 0
-202 -32 474 0
-202 32 -474 0
202 -32 -474 0
197 163 242 0
-197 -163 242 0
-197 163 -242 0
197 -163 -242 0
402 479 63 0
-402 -479 63 0
-402 479 -63 0
402 -479 -63 0
491 45 146 0
-491 -45 146 0
-491 45 -146 0
491 -45 -146 0
-646 362 775 0
646 -362 775 0
646 362 -775 0
-646 -362 -775 0
-681 714 625 0
681 -714 625 0
681 714 -625 0
-681 -714 -625 0
-276 683 561 0
276 -683 561 0
276 683 -561 0
-276 -683 -561 0
627 463 508 0
-627 -463 508 0
-627 463 -508 0
627 -463 -508 0
625 684 447 0
-625 -684 447 0
-625 684 -447 0
625 -684 -447 0
-27 442 44 0
27 -442 44 0
27 442 -44 0
-27 -442 -44 0
-170 454 510 0
170 -454 510 0
170 454 -510 0
-170 -454 -510 0
618 608 463 0
-618 -608 463 0
-618 608 -463 0
618 -608 -463 0
-460 128 53 0
460 -128 53 0
460 128 -53 0
-460 -128 -53 0
490 344 586 0
-490 -344 586 0
-490 344 -586 0
490 -344 -586 0
528 289 720 0
-528 -289 720 0
-528 289 -720 0
528 -289 -720 0
-450 13 186 0
450 -13 186 0
450 13 -186 0
-450 -13 -186 0
-262 692 270 0
262 -692 270 0
262 692 -270 0
-262 -692 -270 0
-346 275 667 0
346 -275 667 0
346 275 -667 0
-346 -275 -667 0
-637 467 723 0
637 -467 723 0
637 467 -723 0
-637 -467 -723 0
81 551 637 0
-81 -551 637 0
-81 551 -637 0
81 -551 -637 0
-233 461 299 0
233 -461 299 0
233 461 -299 0
-233 -461 -299 0
6 514 585 0
-6 -514 585 0
-6 514 -585 0
6 -514 -585 0
762 322 669 0
-762 -322 669 0
-762 322 -669 0
762 -322 -669 0
96 777 633 0
-96 -777 633 0
-96 777 -633 0
96 -777 -633 0
-605 536 154 0
605 -536 154 0
605 536 -154 0
-605 -536 -154 0
-288 731 110 0
288 -731 110 0
288 731 -110 0
-288 -731 -110 0
334 725 535 0
-334 -725 535 0
-334 725 -535 0
334 -725 -535 0
424 118 566 0
-424 -118 566 0
-424 118 -566 0
424 -118 -566 0
333 92 219 0
-333 -92 219 0
-333 92 -219 0
333 -92 -219 0
710 219 150 0
-710 -219 150 0
-710 219 -150 0
710 -219 -150 0
114 526 263 0
-114 -526 263 0
-114 526 -263 0
114 -526 -263 0
-181 193 678 0
181 -193 678 0
181 193 -678 0
-181 -193 -678 0
663 671 409 0
-663 -671 409 0
-663 671 -409 0
663 -671 -409 0
700 234 724 0
-700 -234 724 0
-700 234 -724 0
700 -234 -724 0
-577 617 441 0
577 -617 441 0
577 617 -441 0
-577 -617 -441 0
555 538 174 0
-555 -538 174 0
-555 538 -174 0
555 -538 -174 0
-52 94 694 0
52 -94 694 0
52 94 -694 0
-52 -94 -694 0
200 593 336 0
-200 -593 336 0
-200 593 -336 0
200 -593 -336 0
119 762 613 0
-119 -762 613 0
-119 762 -613 0
119 -762 -613 0
-14 254 477 0
14 -254 477 0
14 254 -477 0
-14 -254 -477 0
-785 115 408 0
785 -115 408 0
785 115 -408 0
-785 -115 -408 0
-664 290 515 0
664 -290 515 0
664 290 -515 0
-664 -290 -515 0
79 269 99 0
-79 -269 99 0
-79 269 -99 0
79 -269 -99 0
618 181 85 0
-618 -181 85 0
-618 181 -85 0
618 -181 -85 0
-296 244 259 0
296 -244 259 0
296 244 -259 0
-296 -244 -259 0
162 599 453 0
-162 -599 453 0
-162 599 -453 0
162 -599 -453 0
626 236 645 0
-626 -236 645 0
-626 236 -645 0
626 -236 -645 0
-42 436 611 0
42 -436 611 0
42 436 -611 0
-42 -436 -611 0
-642 773 536 0
642 -773 536 0
642 773 -536 0
-642 -773 -536 0
-721 243 60 0
721 -243 60 0
721 243 -60 0
-721 -243 -60 0
-593 393 345 0
593 -393 345 0
593 393 -345 0
-593 -393 -345 0
363 34 651 0
-363 -34 651 0
-363 34 -651 0
363 -34 -651 0
-609 605 726 0
609 -605 726 0
609 605 -726 0
-609 -605 -726 0
-403 585 558 0
403 -585 558 0
403 585 -558 0
-403 -585 -558 0
364 125 108 0
-364 -125 108 0
-364 125 -108 0
364 -125 -108 0
-650 653 294 0
650 -653 294 0
650 653 -294 0
-650 -653 -294 0
-502 638 70 0
502 -638 70 0
502 638 -70 0
-502 -638 -70 0
783 511 747 0
-783 -511 747 0
-783 511 -747 0
783 -511 -747 0
-132 594 655 0
132 -594 655 0
132 594 -655 0
-132 -594 -655 0
582 519 567 0
-582 -519 567 0
-582 519 -567 0
582 -519 -567 0
67 261 798 0
-67 -261 798 0
-67 261 -798 0
67 -261 -798 0
-708 654 472 0
708 -654 472 0
708 654 -472 0
-708 -654 -472 0
-595 649 10 0
595 -649 10 0
595 649 -10 0
-595 -649 -10 0
35 337 560 0
-35 -337 560 0
-35 337 -560 0
35 -337 -560 0
587 410 607 0
-587 -410 607 0
-587 410 -607 0
587 -410 -607 0
788 1 320 0
-788 -1 320 0
-788 1 -320 0
788 -1 -320 0
459 225 783 0
-459 -225 783 0
-459 225 -783 0
459 -225 -783 0
-14 546 342 0
14 -546 342 0
14 546 -342 0
-14 -546 -342 0
390 120 432 0
-390 -120 432 0
-390 120 -432 0
390 -120 -432 0
-288 696 182 0
288 -696 182 0
288 696 -182 0
-288 -696 -182 0
-743 481 640 0
743 -481 640 0
743 481 -640 0
-743 -481 -640 0
583 113 295 0
-583 -113 295 0
-583 113 -295 0
583 -113 -295 0
346 350 201 0
-346 -350 201 0
-346 350 -201 0
346 -350 -201 0
573 143 509 0
-573 -143 509 0
-573 143 -509 0
573 -143 -509 0
412 774 142 0
-412 -774 142 0
-412 774 -142 0
412 -774 -142 0
-698 663 164 0
698 -663 164 0
698 663 -164 0
-698 -663 -164 0
405 693 719 0
-405 -693 719 0
-405 693 -719 0
405 -693 -719 0
-382 540 406 0
382 -540 406 0
382 540 -406 0
-382 -540 -406 0
-745 628 722 0
745 -628 722 0
745 628 -722 0
-745 -628 -722 0
105 79 130 0
-105 -79 130 0
-105 79 -130 0
105 -79 -130 0
-68 711 48 0
68 -711 48 0
68 711 -48 0
-68 -711 -48 0
11 620 486 0
-11 -620 486 0
-11 620 -486 0
11 -620 -486 0
454 334 587 0
-454 -334 587 0
-454 334 -587 0
454 -334 -587 0
210 579 53 0
-210 -579 53 0
-210 579 -53 0
210 -579 -53 0
462 88 759 0
-462 -88 759 0
-462 88 -759 0
462 -88 -759 0
285 28 352 0
-285 -28 352 0
-285 28 -352 0
285 -28 -352 0
-597 9 352 0
597 -9 352 0
597 9 -352 0
-597 -9 -352 0
677 325 374 0
-677 -325 374 0
-677 325 -374 0
677 -325 -374 0
565 686 100 0
-565 -686 100 0
-565 686 -100 0
565 -686 -100 0
626 496 624 0
-626 -496 624 0
-626 496 -624 0
626 -496 -624 0
-353 675 648 0
353 -675 648 0
353 675 -648 0
-353 -675 -648 0
369 796 407 0
-369 -796 407 0
-369 796 -407 0
369 -796 -407 0
-559 66 358 0
559 -66 358 0
559 66 -358 0
-559 -66 -358 0
-202 303 89 0
202 -303 89 0
202 303 -89 0
-202 -303 -89 0
721 264 43 0
-721 -264 43 0
-721 264 -43 0
721 -264 -43 0
-685 272 754 0
685 -272 754 0
685 272 -754 0
-685 -272 -754 0
524 113 71 0
-524 -113 71 0
-524 113 -71 0
524 -113 -71 0
616 40 588 0
-616 -40 588 0
-616 40 -588 0
616 -40 -588 0
-218 304 601 0
218 -304 601 0
218 304 -601 0
-218 -304 -601 0
-245 404 224 0
245 -404 224 0
245 404 -224 0
-245 -404 -224 0
457 495 360 0
-457 -495 360 0
-457 495 -360 0
457 -495 -360 0
426 616 294 0
-426 -616 294 0
-426 616 -294 0
426 -616 -294 0
-180 510 640 0
180 -510 640 0
180 510 -640 0
-180 -510 -640 0
624 116 74 0
-624 -116 74 0
-624 116 -74 0
624 -116 -74 0
689 69 31 0
-689 -69 31 0
-689 69 -31 0
689 -69 -31 0
589 596 375 0
-589 -596 375 0
-589 596 -375 0
589 -596 -375 0
-462 780 599 0
462 -780 599 0
462 780 -599 0
-462 -780 -599 0
409 795 516 0
-409 -795 516 0
-409 795 -516 0
409 -795 -516 0
200 250 308 0
-200 -250 308 0
-200 250 -308 0
200 -250 -308 0
-267 3 443 0
267 -3 443 0
267 3 -443 0
-267 -3 -443 0
415 104 411 0
-415 -104 411 0
-415 104 -411 0
415 -104 -411 0
789 198 447 0
-789 -198 447 0
-789 198 -447 0
789 -198 -447 0
460 581 596 0
-460 -581 596 0
-460 581 -596 0
460 -581 -596 0
-661 556 3 0
661 -556 3 0
661 556 -3 0
-661 -556 -3 0
-230 23 20 0
230 -23 20 0
230 23 -20 0
-230 -23 -20 0
210 17 205 0
-210 -17 205 0
-210 17 -205 0
210 -17 -205 0
133 323 496 0
-133 -323 496 0
-133 323 -496 0
133 -323 -496 0
698 371 736 0
-698 -371 736 0
-698 371 -736 0
698 -371 -736 0
256 136 407 0
-256 -136 407 0
-256 136 -407 0
256 -136 -407 0
-394 694 15 0
394 -694 15 0
394 694 -15 0
-394 -694 -15 0
279 348 361 0
-279 -348 361 0
-279 348 -361 0
279 -348 -361 0
-356 522 138 0
356 -522 138 0
356 522 -138 0
-356 -522 -138 0
779 584 674 0
-779 -584 674 0
-779 584 -674 0
779 -584 -674 0
254 293 739 0
-254 -293 739 0
-254 293 -739 0
254 -293 -739 0
-456 676 156 0
456 -676 156 0
456 676 -156 0
-456 -676 -156 0
-787 38 365 0
787 -38 365 0
787 38 -365 0
-787 -38 -365 0
537 368 212 0
-537 -368 212 0
-537 368 -212 0
537 -368 -212 0
242 412 516 0
-242 -412 516 0
-242 412 -516 0
242 -412 -516 0
401 751 711 0
-401 -751 711 0
-401 751 -711 0
401 -751 -711 0
512 571 30 0
-512 -571 30 0
-512 571 -30 0
512 -571 -30 0
16 592 157 0
-16 -592 157 0
-16 592 -157 0
16 -592 -157 0
429 484 488 0
-429 -484 488 0
-429 484 -488 0
429 -484 -488 0
451 384 572 0
-451 -384 572 0
-451 384 -572 0
451 -384 -572 0
-540 239 131 0
540 -239 131 0
540 239 -131 0
-540 -239 -131 0
576 523 420 0
-576 -523 420 0
-576 523 -420 0
576 -523 -420 0
-122 4 10 0
122 -4 10 0
122 4 -10 0
-122 -4 -10 0
670 550 32 0
-670 -550 32 0
-670 550 -32 0
670 -550 -32 0
646 339 274 0
-646 -339 274 0
-646 339 -274 0
646 -339 -274 0
534 653 183 0
-534 -653 183 0
-534 653 -183 0
534 -653 -183 0
-521 743 278 0
521 -743 278 0
521 743 -278 0
-521 -743 -278 0
237 358 101 0
-237 -358 101 0
-237 358 -101 0
237 -358 -101 0
103 124 621 0
-103 -124 621 0
-103 124 -621 0
103 -124 -621 0
418 98 199 0
-418 -98 199 0
-418 98 -199 0
418 -98 -199 0
492 652 50 0
-492 -652 50 0
-492 652 -50 0
492 -652 -50 0
145 204 261 0
-145 -204 261 0
-145 204 -261 0
145 -204 -261 0
-609 279 173 0
609 -279 173 0
609 279 -173 0
-609 -279 -173 0
-172 561 580 0
172 -561 580 0
172 561 -580 0
-172 -561 -580 0
-588 212 763 0
588 -212 763 0
588 212 -763 0
-588 -212 -763 0
-569 756 448 0
569 -756 448 0
569 756 -448 0
-569 -756 -448 0
-367 797 97 0
367 -797 97 0
367 797 -97 0
-367 -797 -97 0
226 475 41 0
-226 -475 41 0
-226 475 -41 0
226 -475 -41 0
-93 742 466 0
93 -742 466 0
93 742 -466 0
-93 -742 -466 0
307 365 215 0
-307 -365 215 0
-307 365 -215 0
307 -365 -215 0
366 491 218 0
-366 -491 218 0
-366 491 -218 0
366 -491 -218 0
497 48 177 0
-497 -48 177 0
-497 48 -177 0
497 -48 -177 0
183 345 469 0
-183 -345 469 0
-183 345 -469 0
183 -345 -469 0
-153 46 503 0
153 -46 503 0
153 46 -503 0
-153 -46 -503 0
522 58 731 0
-522 -58 731 0
-522 58 -731 0
522 -58 -731 0
-603 746 680 0
603 -746 680 0
603 746 -680 0
-603 -746 -680 0
-331 221 123 0
331 -221 123 0
331 221 -123 0
-331 -221 -123 0
249 647 232 0
-249 -647 232 0
-249 647 -232 0
249 -647 -232 0
-769 468 260 0
769 -468 260 0
769 468 -260 0
-769 -468 -260 0
-746 29 205 0
746 -29 205 0
746 29 -205 0
-746 -29 -205 0
282 278 421 0
-282 -278 421 0
-282 278 -421 0
282 -278 -421 0
287 8 728 0
-287 -8 728 0
-287 8 -728 0
287 -8 -728 0
-119 758 435 0
119 -758 435 0
119 758 -435 0
-119 -758 -435 0
257 798 152 0
-257 -798 152 0
-257 798 -152 0
257 -798 -152 0
191 752 776 0
-191 -752 776 0
-191 752 -776 0
191 -752 -776 0
215 600 794 0
-215 -600 794 0
-215 600 -794 0
215 -600 -794 0
611 87 73 0
-611 -87 73 0
-611 87 -73 0
611 -87 -73 0
372 84 54 0
-372 -84 54 0
-372 84 -54 0
372 -84 -54 0
-702 325 276 0
702 -325 276 0
702 325 -276 0
-702 -325 -276 0
-439 574 684 0
439 -574 684 0
439 574 -684 0
-439 -574 -684 0
-51 530 153 0
51 -530 153 0
51 530 -153 0
-51 -530 -153 0
533 662 428 0
-533 -662 428 0
-533 662 -428 0
533 -662 -428 0
590 750 253 0
-590 -750 253 0
-590 750 -253 0
590 -750 -253 0
666 512 504 0
-666 -512 504 0
-666 512 -504 0
666 -512 -504 0
-324 164 433 0
324 -164 433 0
324 164 -433 0
-324 -164 -433 0
174 171 350 0
-174 -171 350 0
-174 171 -350 0
174 -171 -350 0
685 699 349 0
-685 -699 349 0
-685 699 -349 0
685 -699 -349 0
381 630 75 0
-381 -630 75 0
-381 630 -75 0
381 -630 -75 0
-310 444 448 0
310 -444 448 0
310 444 -448 0
-310 -444 -448 0
570 565 193 0
-570 -565 193 0
-570 565 -193 0
570 -565 -193 0
-291 290 527 0
291 -290 527 0
291 290 -527 0
-291 -290 -527 0
284 178 203 0
-284 -178 203 0
-284 178 -203 0
284 -178 -203 0
-273 333 313 0
273 -333 313 0
273 333 -313 0
-273 -333 -313 0
-49 791 235 0
49 -791 235 0
49 791 -235 0
-49 -791 -235 0
-211 356 107 0
211 -356 107 0
211 356 -107 0
-211 -356 -107 0
-147 667 478 0
147 -667 478 0
147 667 -478 0
-147 -667 -478 0
614 699 177 0
-614 -699 177 0
-614 699 -177 0
614 -699 -177 0
608 668 789 0
-608 -668 789 0
-608 668 -789 0
608 -668 -789 0
-589 221 224 0
589 -221 224 0
589 221 -224 0
-589 -221 -224 0
-393 598 336 0
393 -598 336 0
393 598 -336 0
-393 -598 -336 0
-606 302 444 0
606 -302 444 0
606 302 -444 0
-606 -302 -444 0
452 620 340 0
-452 -620 340 0
-452 620 -340 0
452 -620 -340 0
-735 209 85 0
735 -209 85 0
735 209 -85 0
-735 -209 -85 0
682 759 494 0
-682 -759 494 0
-682 759 -494 0
682 -759 -494 0
61 391 586 0
-61 -391 586 0
-61 391 -586 0
61 -391 -586 0
-76 264 268 0
76 -264 268 0
76 264 -268 0
-76 -264 -268 0
304 627 237 0
-304 -627 237 0
-304 627 -237 0
304 -627 -237 0
-689 287 621 0
689 -287 621 0
689 287 -621 0
-689 -287 -621 0
-576 553 671 0
576 -553 671 0
576 553 -671 0
-576 -553 -671 0
-753 686 390 0
753 -686 390 0
753 686 -390 0
-753 -686 -390 0
577 770 691 0
-577 -770 691 0
-577 770 -691 0
577 -770 -691 0
656 144 680 0
-656 -144 680 0
-656 144 -680 0
656 -144 -680 0
745 581 100 0
-745 -581 100 0
-745 581 -100 0
745 -581 -100 0
-258 734 755 0
258 -734 755 0
258 734 -755 0
-258 -734 -755 0
269 551 539 0
-269 -551 539 0
-269 551 -539 0
269 -551 -539 0
74 229 167 0
-74 -229 167 0
-74 229 -167 0
74 -229 -167 0
-33 417 489 0
33 -417 489 0
33 417 -489 0
-33 -417 -489 0
-283 651 506 0
283 -651 506 0
283 651 -506 0
-283 -651 -506 0
414 130 168 0
-414 -130 168 0
-414 130 -168 0
414 -130 -168 0
-90 538 631 0
90 -538 631 0
90 538 -631 0
-90 -538 -631 0
-665 420 430 0
665 -420 430 0
665 420 -430 0
-665 -420 -430 0
-453 217 451 0
453 -217 451 0
453 217 -451 0
-453 -217 -451 0
151 96 555 0
-151 -96 555 0
-151 96 -555 0
151 -96 -555 0
-416 380 470 0
416 -380 470 0
416 380 -470 0
-416 -380 -470 0
792 82 78 0
-792 -82 78 0
-792 82 -78 0
792 -82 -78 0
26 527 184 0
-26 -527 184 0
-26 527 -184 0
26 -527 -184 0
-533 62 303 0
533 -62 303 0
533 62 -303 0
-533 -62 -303 0
473 678 54 0
-473 -678 54 0
-473 678 -54 0
473 -678 -54 0
-355 190 737 0
355 -190 737 0
355 190 -737 0
-355 -190 -737 0
155 266 472 0
-155 -266 472 0
-155 266 -472 0
155 -266 -472 0
517 28 657 0
-517 -28 657 0
-517 28 -657 0
517 -28 -657 0
727 733 117 0
-727 -733 117 0
-727 733 -117 0
727 -733 -117 0
778 196 337 0
-778 -196 337 0
-778 196 -337 0
778 -196 -337 0
52 793 735 0
-52 -793 735 0
-52 793 -735 0
52 -793 -735 0
-37 246 701 0
37 -246 701 0
37 246 -701 0
-37 -246 -701 0
305 39 87 0
-305 -39 87 0
-305 39 -87 0
305 -39 -87 0
291 207 146 0
-291 -207 146 0
-291 207 -146 0
291 -207 -146 0
31 558 632 0
-31 -558 632 0
-31 558 -632 0
31 -558 -632 0
312 556 688 0
-312 -556 688 0
-312 556 -688 0
312 -556 -688 0
-501 738 47 0
501 -738 47 0
501 738 -47 0
-501 -738 -47 0
-755 506 418 0
755 -506 418 0
755 506 -418 0
-755 -506 -418 0
-354 297 543 0
354 -297 543 0
354 297 -543 0
-354 -297 -543 0
-179 75 674 0
179 -75 674 0
179 75 -674 0
-179 -75 -674 0
659 44 175 0
-659 -44 175 0
-659 44 -175 0
659 -44 -175 0
-77 194 730 0
77 -194 730 0
77 194 -730 0
-77 -194 -730 0
197 43 314 0
-197 -43 314 0
-197 43 -314 0
197 -43 -314 0
-249 560 564 0
249 -560 564 0
249 560 -564 0
-249 -560 -564 0
-583 642 109 0
583 -642 109 0
583 642 -109 0
-583 -642 -109 0
-173 59 93 0
173 -59 93 0
173 59 -93 0
-173 -59 -93 0
546 396 117 0
-546 -396 117 0
-546 396 -117 0
546 -396 -117 0
-319 704 631 0
319 -704 631 0
319 704 -631 0
-319 -704 -631 0
-643 211 56 0
643 -211 56 0
643 211 -56 0
-643 -211 -56 0
495 764 690 0
-495 -764 690 0
-495 764 -690 0
495 -764 -690 0
18 148 794 0
-18 -148 794 0
-18 148 -794 0
18 -148 -794 0
-485 132 475 0
485 -132 475 0
485 132 -475 0
-485 -132 -475 0
-135 776 598 0
135 -776 598 0
135 776 -598 0
-135 -776 -598 0
649 335 123 0
-649 -335 123 0
-649 335 -123 0
649 -335 -123 0
488 425 549 0
-488 -425 549 0
-488 425 -549 0
488 -425 -549 0
-168 697 574 0
168 -697 574 0
168 697 -574 0
-168 -697 -574 0
704 281 338 0
-704 -281 338 0
-704 281 -338 0
704 -281 -338 0
-660 765 376 0
660 -765 376 0
660 765 -376 0
-660 -765 -376 0
449 328 347 0
-449 -328 347 0
-449 328 -347 0
449 -328 -347 0
233 68 159 0
-233 -68 159 0
-233 68 -159 0
233 -68 -159 0
-717 392 355 0
717 -392 355 0
717 392 -355 0
-717 -392 -355 0
-542 55 199 0
542 -55 199 0
542 55 -199 0
-542 -55 -199 0
208 36 38 0
-208 -36 38 0
-208 36 -38 0
208 -36 -38 0
702 493 584 0
-702 -493 584 0
-702 493 -584 0
702 -493 -584 0
-725 493 5 0
725 -493 5 0
725 493 -5 0
-725 -493 -5 0
-189 729 619 0
189 -729 619 0
189 729 -619 0
-189 -729 -619 0
483 399 381 0
-483 -399 381 0
-483 399 -381 0
483 -399 -381 0
-323 525 431 0
323 -525 431 0
323 525 -431 0
-323 -525 -431 0
-664 16 204 0
664 -16 204 0
664 16 -204 0
-664 -16 -204 0
-757 271 578 0
757 -271 578 0
757 271 -578 0
-757 -271 -578 0
-628 579 112 0
628 -579 112 0
628 579 -112 0
-628 -579 -112 0
-145 133 302 0
145 -133 302 0
145 133 -302 0
-145 -133 -302 0
557 562 253 0
-557 -562 253 0
-557 562 -253 0
557 -562 -253 0
-198 487 683 0
198 -487 683 0
198 487 -683 0
-198 -487 -683 0
-396 456 644 0
396 -456 644 0
396 456 -644 0
-396 -456 -644 0
-766 597 666 0
766 -597 666 0
766 597 -666 0
-766 -597 -666 0
-73 716 415 0
73 -716 415 0
73 716 -415 0
-73 -716 -415 0
757 691 230 0
-757 -691 230 0
-757 691 -230 0
757 -691 -230 0
-169 367 537 0
169 -367 537 0
169 367 -537 0
-169 -367 -537 0
83 477 95 0
-83 -477 95 0
-83 477 -95 0
83 -477 -95 0
-21 111 710 0
21 -111 710 0
21 111 -710 0
-21 -111 -710 0
-182 241 63 0
182 -241 63 0
182 241 -63 0
-182 -241 -63 0
-440 709 107 0
440 -709 107 0
440 709 -107 0
-440 -709 -107 0
321 634 255 0
-321 -634 255 0
-321 634 -255 0
321 -634 -255 0
-35 559 141 0
35 -559 141 0
35 559 -141 0
-35 -559 -141 0
-772 259 732 0
772 -259 732 0
772 259 -732 0
-772 -259 -732 0
-319 24 275 0
319 -24 275 0
319 24 -275 0
-319 -24 -275 0
64 518 129 0
-64 -518 129 0
-64 518 -129 0
64 -518 -129 0
86 134 131 0
-86 -134 131 0
-86 134 -131 0
86 -134 -131 0
634 238 554 0
-634 -238 554 0
-634 238 -554 0
634 -238 -554 0
191 37 513 0
-191 -37 513 0
-191 37 -513 0
191 -37 -513 0
329 428 467 0
-329 -428 467 0
-329 428 -467 0
329 -428 -467 0
-231 282 505 0
231 -282 505 0
231 282 -505 0
-231 -282 -505 0
-5 280 109 0
5 -280 109 0
5 280 -109 0
-5 -280 -109 0
339 240 386 0
-339 -240 386 0
-339 240 -386 0
339 -240 -386 0
613 161 227 0
-613 -161 227 0
-613 161 -227 0
613 -161 -227 0
129 697 40 0
-129 -697 40 0
-129 697 -40 0
129 -697 -40 0
-771 647 500 0
771 -647 500 0
771 647 -500 0
-771 -647 -500 0
-86 377 772 0
86 -377 772 0
86 377 -772 0
-86 -377 -772 0
550 383 360 0
-550 -383 360 0
-550 383 -360 0
550 -383 -360 0
705 244 760 0
-705 -244 760 0
-705 244 -760 0
705 -244 -760 0
-797 639 348 0
797 -639 348 0
797 639 -348 0
-797 -639 -348 0
-311 557 497 0
311 -557 497 0
311 557 -497 0
-311 -557 -497 0
523 748 575 0
-523 -748 575 0
-523 748 -575 0
523 -748 -575 0
357 445 397 0
-357 -445 397 0
-357 445 -397 0
357 -445 -397 0
-419 606 792 0
419 -606 792 0
419 606 -792 0
-419 -606 -792 0
-19 736 707 0
19 -736 707 0
19 736 -707 0
-19 -736 -707 0
709 22 476 0
-709 -22 476 0
-709 22 -476 0
709 -22 -476 0
155 298 112 0
-155 -298 112 0
-155 298 -112 0
155 -298 -112 0
-572 498 720 0
572 -498 720 0
572 498 -720 0
-572 -498 -720 0
-136 76 486 0
136 -76 486 0
136 76 -486 0
-136 -76 -486 0
662 521 227 0
-662 -521 227 0
-662 521 -227 0
662 -521 -227 0
342 156 569 0
-342 -156 569 0
-342 156 -569 0
342 -156 -569 0
-617 252 245 0
617 -252 245 0
617 252 -245 0
-617 -252 -245 0
-374 392 72 0
374 -392 72 0
374 392 -72 0
-374 -392 -72 0
-56 376 529 0
56 -376 529 0
56 376 -529 0
-56 -376 -529 0
-481 69 615 0
481 -69 615 0
481 69 -615 0
-481 -69 -615 0
-131 315 222 0
131 -315 222 0
131 315 -222 0
-131 -315 -222 0
-104 763 371 0
104 -763 371 0
104 763 -371 0
-104 -763 -371 0
-309 338 293 0
309 -338 293 0
309 338 -293 0
-309 -338 -293 0
692 591 580 0
-692 -591 580 0
-692 591 -580 0
692 -591 -580 0
-782 246 283 0
782 -246 283 0
782 246 -283 0
-782 -246 -283 0
318 39 64 0
-318 -39 64 0
-318 39 -64 0
318 -39 -64 0
-386 151 517 0
386 -151 517 0
386 151 -517 0
-386 -151 -517 0
-277 424 612 0
277 -424 612 0
277 424 -612 0
-277 -424 -612 0
-147 238 322 0
147 -238 322 0
147 238 -322 0
-147 -238 -322 0
-247 440 190 0
247 -440 190 0
247 440 -190 0
-247 -440 -190 0
201 659 668 0
-201 -659 668 0
-201 659 -668 0
201 -659 -668 0
632 284 767 0
-632 -284 767 0
-632 284 -767 0
632 -284 -767 0
607 715 629 0
-607 -715 629 0
-607 715 -629 0
607 -715 -629 0
-439 778 236 0
439 -778 236 0
439 778 -236 0
-439 -778 -236 0
361 400 665 0
-361 -400 665 0
-361 400 -665 0
361 -400 -665 0
-648 143 62 0
648 -143 62 0
648 143 -62 0
-648 -143 -62 0
340 471 351 0
-340 -471 351 0
-340 471 -351 0
340 -471 -351 0
-59 206 547 0
59 -206 547 0
59 206 -547 0
-59 -206 -547 0
566 655 570 0
-566 -655 570 0
-566 655 -570 0
566 -655 -570 0
544 99 359 0
-544 -99 359 0
-544 99 -359 0
544 -99 -359 0
730 526 443 0
-730 -526 443 0
-730 526 -443 0
730 -526 -443 0
397 192 594 0
-397 -192 594 0
-397 192 -594 0
397 -192 -594 0
-42 299 50 0
42 -299 50 0
42 299 -50 0
-42 -299 -50 0
-270 437 317 0
270 -437 317 0
270 437 -317 0
-270 -437 -317 0
-751 301 722 0
751 -301 722 0
751 301 -722 0
-751 -301 -722 0
357 441 754 0
-357 -441 754 0
-357 441 -754 0
357 -441 -754 0
-470 675 137 0
470 -675 137 0
470 675 -137 0
-470 -675 -137 0
682 57 452 0
-682 -57 452 0
-682 57 -452 0
682 -57 -452 0
-542 208 787 0
542 -208 787 0
542 208 -787 0
-542 -208 -787 0
-687 768 347 0
687 -768 347 0
687 768 -347 0
-687 -768 -347 0
575 289 327 0
-575 -289 327 0
-575 289 -327 0
575 -289 -327 0
228 83 225 0
-228 -83 225 0
-228 83 -225 0
228 -83 -225 0
-419 507 696 0
419 -507 696 0
419 507 -696 0
-419 -507 -696 0
-446 292 90 0
446 -292 90 0
446 292 -90 0
-446 -292 -90 0
