p cnf 26 72
6 8 -5 0
6 -8 5 0
-6 8 5 0
-6 -8 -5 0
26 22 4 0
26 -22 -4 0
-26 22 -4 0
-26 -22 4 0
3 11 -2 0
3 -11 2 0
-3 11 2 0
-3 -11 -2 0
23 10 -11 0
23 -10 11 0
-23 10 11 0
-23 -10 -11 0
7 22 -17 0
7 -22 17 0
-7 22 17 0
-7 -22 -17 0
26 2 -20 0
26 -2 20 0
-26 2 20 0
-26 -2 -20 0
24 19 21 0
24 -19 -21 0
-24 19 -21 0
-24 -19 21 0
13 16 14 0
13 -16 -14 0
-13 16 -14 0
-13 -16 14 0
20 6 -4 0
20 -6 4 0
-20 6 4 0
-20 -6 -4 0
5 12 -19 0
5 -12 19 0
-5 12 19 0
-5 -12 -19 0
18 13 10 0
18 -13 -10 0
-18 13 -10 0
-18 -13 10 0
25 1 -21 0
25 -1 21 0
-25 1 21 0
-25 -1 -21 0
24 18 -8 0
24 -18 8 0
-24 18 8 0
-24 -18 -8 0
3 7 14 0
3 -7 -14 0
-3 7 -14 0
-3 -7 14 0
15 3 -23 0
15 -3 23 0
-15 3 23 0
-15 -3 -23 0
12 25 16 0
12 -25 -16 0
-12 25 -16 0
-12 -25 16 0
17 1 -9 0
17 -1 9 0
-17 1 9 0
-17 -1 -9 0
15 9 1 0
15 -9 -1 0
-15 9 -1 0
-15 -9 1 0
