p cnf 20 86
20 8 -5 0
6 -2 5 0
9 -13 17 0
-2 -8 19 0
-6 18 -2 0
-18 -7 1 0
8 13 -10 0
13 -8 4 0
5 -9 -12 0
-1 13 18 0
-17 -9 13 0
-19 -14 -3 0
10 -7 -12 0
-12 -10 -1 0
-15 14 -8 0
16 -17 7 0
9 -11 3 0
5 -10 13 0
-16 7 14 0
-2 16 -12 0
-10 -12 19 0
3 1 11 0
-6 -10 19 0
9 13 -15 0
-1 4 -11 0
6 -15 -12 0
-15 -14 1 0
8 -11 -20 0
6 7 -20 0
-14 -10 1 0
7 15 5 0
-11 -9 -16 0
-4 14 2 0
-15 -14 -5 0
-20 -1 -4 0
11 -10 -17 0
1 -4 9 0
-3 8 -6 0
4 -15 -19 0
14 -10 -18 0
13 8 -5 0
-14 -10 -18 0
4 -19 -3 0
16 -3 -7 0
-9 4 -15 0
14 -3 -9 0
-1 -3 -15 0
7 -8 6 0
-6 18 13 0
15 19 -17 0
-10 -18 -14 0
-17 -4 13 0
-12 19 17 0
-11 15 7 0
-12 -7 1 0
-4 -11 7 0
10 -8 -20 0
-14 -5 9 0
-9 -19 -4 0
6 19 9 0
-10 3 4 0
10 -11 -3 0
12 4 6 0
-14 -5 16 0
19 20 -17 0
4 -7 -10 0
-15 -14 -12 0
18 -14 -2 0
17 -8 -2 0
-4 8 -3 0
-5 -15 9 0
13 16 11 0
-5 12 13 0
-4 7 16 0
15 -5 -14 0
5 -12 -6 0
-19 10 -8 0
10 15 19 0
-8 7 4 0
-3 7 4 0
14 18 9 0
18 14 7 0
-10 9 -20 0
9 -18 -11 0
20 12 2 0
18 6 -15 0
