c Conventional planted SAT; verification witness stored separately
p cnf 512 2202
-198 -57 211 0
185 -177 -173 0
-479 -328 237 0
-134 73 208 0
-395 -426 43 0
157 366 -339 0
112 7 -437 0
-381 -334 333 0
-208 -206 -172 0
-123 -263 -346 0
-286 -121 -202 0
348 432 -298 0
-491 287 -111 0
-113 342 -275 0
-201 463 319 0
101 -25 -368 0
-33 -133 -61 0
-426 158 -255 0
293 174 -500 0
-50 -22 -463 0
79 -30 -419 0
-407 340 -207 0
104 -160 -131 0
-494 148 -348 0
62 387 -233 0
-177 -174 388 0
18 218 -68 0
144 -356 -283 0
504 -488 208 0
94 104 -10 0
63 -322 -156 0
58 -416 -508 0
217 -271 384 0
-344 -349 495 0
-309 444 275 0
398 -100 -206 0
-475 225 325 0
413 372 241 0
-132 503 240 0
26 326 -88 0
-398 154 -28 0
-40 175 -157 0
13 -511 237 0
408 439 178 0
-257 105 37 0
-177 -441 -225 0
81 -188 303 0
-44 -453 -458 0
-413 -54 -511 0
-136 -494 -230 0
-116 -1 -47 0
-64 425 -409 0
208 328 300 0
284 436 471 0
318 180 -185 0
-100 307 -107 0
-466 -12 367 0
229 -133 490 0
-367 106 175 0
-21 -347 62 0
131 -241 -444 0
142 109 50 0
-300 -398 -389 0
281 56 -417 0
375 -130 288 0
-107 506 -36 0
-271 22 -163 0
454 -402 65 0
228 258 -217 0
-155 -22 161 0
338 -56 390 0
-340 135 -355 0
-416 -308 -45 0
509 237 484 0
94 254 312 0
-49 258 -71 0
181 -320 -321 0
-386 296 290 0
-453 60 136 0
-328 80 -73 0
-232 -351 -443 0
186 -304 -417 0
-463 -83 306 0
-338 303 508 0
-358 8 415 0
-387 -29 -184 0
282 -158 426 0
177 -151 7 0
-426 -32 229 0
131 378 457 0
-251 228 474 0
-395 -98 -346 0
-252 419 20 0
68 -204 67 0
-296 -37 506 0
-329 -105 -505 0
-330 337 230 0
496 68 461 0
356 -292 -281 0
-374 324 261 0
-29 -120 -454 0
147 392 -184 0
-437 -321 -34 0
91 358 -214 0
-334 -447 363 0
-374 30 -81 0
123 -199 -34 0
295 -503 -338 0
-239 -257 125 0
-392 507 441 0
280 453 -214 0
157 -161 -189 0
100 199 -450 0
426 371 -80 0
-330 -250 -471 0
-455 64 -334 0
97 -110 -319 0
-394 35 -138 0
91 171 483 0
224 -213 17 0
-95 318 250 0
-495 468 -130 0
-324 -110 139 0
-134 362 -248 0
181 -58 -150 0
-348 466 -135 0
264 -315 128 0
79 197 378 0
-502 -479 504 0
328 329 -308 0
16 -472 -332 0
471 386 -367 0
238 45 -392 0
-434 -25 441 0
140 251 -297 0
-483 -420 -287 0
338 -303 -42 0
218 -308 -379 0
190 -158 129 0
63 408 169 0
82 -286 -285 0
157 -128 -318 0
-442 235 -200 0
-62 103 26 0
452 -404 -143 0
20 103 475 0
510 -458 -467 0
171 220 104 0
480 225 -487 0
303 -178 -389 0
-335 -435 -109 0
396 -506 -59 0
410 -16 -295 0
212 450 2 0
440 -93 196 0
-24 292 -391 0
358 -370 255 0
223 263 -466 0
-483 118 88 0
-94 -456 -60 0
-289 270 240 0
-4 456 -441 0
271 209 68 0
499 153 203 0
-361 97 333 0
277 61 -295 0
52 -19 254 0
-205 -190 -68 0
-157 -430 -302 0
-379 94 289 0
-428 58 -323 0
471 106 -81 0
-180 111 -315 0
369 474 -431 0
202 510 -350 0
-237 496 55 0
128 196 451 0
-181 -76 60 0
-15 420 -63 0
162 271 -276 0
-20 157 248 0
142 -6 -3 0
19 245 -204 0
178 -12 -470 0
-282 -152 -228 0
243 165 133 0
-292 489 -451 0
-388 453 -220 0
90 451 -327 0
-337 28 -255 0
414 108 -323 0
390 -455 250 0
-235 101 391 0
-48 92 -338 0
229 -399 -432 0
-374 395 -495 0
386 -239 -282 0
-121 24 130 0
-425 41 435 0
75 218 415 0
-424 -362 499 0
305 -350 -113 0
424 509 14 0
-400 292 -230 0
77 415 250 0
-323 364 466 0
-306 19 147 0
116 361 197 0
-323 486 -507 0
-399 -360 286 0
-74 -156 321 0
264 -406 -112 0
-492 -96 -117 0
453 204 399 0
-432 316 -143 0
-62 -211 -83 0
-74 -24 27 0
-195 -403 320 0
-44 57 -337 0
9 427 377 0
188 503 57 0
383 233 305 0
469 218 231 0
-386 115 -62 0
-87 370 181 0
135 -140 -424 0
131 3 -81 0
213 74 222 0
231 102 -174 0
266 144 -457 0
-458 295 395 0
242 -470 396 0
362 -354 272 0
-177 440 325 0
-292 -343 -426 0
449 -122 -252 0
349 -511 193 0
123 -277 -394 0
-442 -104 234 0
425 113 -455 0
348 -334 -260 0
-399 -304 377 0
373 170 -196 0
201 11 -217 0
204 -167 -459 0
-428 -358 437 0
192 332 -102 0
465 412 315 0
358 -314 406 0
439 320 163 0
315 509 -101 0
-353 -419 401 0
-14 57 -352 0
-54 -107 -368 0
472 -75 -228 0
-120 -7 97 0
201 153 116 0
96 -294 -222 0
-272 -158 -249 0
-29 -370 218 0
39 -86 347 0
-29 280 -282 0
-456 7 276 0
300 -346 370 0
132 -103 -429 0
14 462 -292 0
-338 46 150 0
478 358 -180 0
-162 -163 154 0
119 292 296 0
-230 -495 248 0
-136 104 501 0
447 -77 152 0
-35 -400 -470 0
144 90 338 0
456 404 399 0
-200 395 -53 0
173 -71 -252 0
-125 293 410 0
27 -376 348 0
-285 -152 -2 0
504 -325 -45 0
144 -478 -410 0
82 -207 181 0
-105 425 -392 0
13 -510 263 0
-221 -172 -68 0
-442 -51 -448 0
-103 212 -264 0
280 342 -347 0
452 -413 -496 0
393 -473 279 0
-93 171 434 0
14 -134 -229 0
-110 416 453 0
263 -58 190 0
90 -176 229 0
-101 190 427 0
316 -373 63 0
281 74 463 0
91 -138 163 0
-87 174 47 0
-397 142 -414 0
-124 -421 -56 0
-384 213 234 0
-292 -186 31 0
88 86 -16 0
418 -380 -41 0
-83 425 292 0
394 507 91 0
83 -330 143 0
235 -472 -181 0
194 292 90 0
-202 23 229 0
-268 51 -338 0
-158 308 197 0
-435 124 -129 0
147 -341 25 0
164 -190 242 0
510 52 21 0
243 200 230 0
480 -314 419 0
136 -356 -473 0
190 -146 55 0
143 -148 191 0
-167 1 -358 0
49 -422 248 0
215 211 24 0
155 -53 -272 0
160 219 -469 0
-423 -454 506 0
-421 394 283 0
-201 -330 -415 0
50 -208 258 0
-239 44 -504 0
330 -183 81 0
-263 -202 395 0
58 -340 402 0
-506 203 87 0
-206 292 -208 0
-326 463 -431 0
60 -394 -118 0
-342 -461 -492 0
-425 -375 -147 0
343 21 46 0
7 -303 -222 0
-167 283 -142 0
-282 -486 -169 0
489 -195 331 0
153 -271 187 0
-371 326 -380 0
50 357 -294 0
339 -367 316 0
226 377 -246 0
-69 -285 -10 0
-93 -18 356 0
-310 -135 185 0
457 417 297 0
-479 -73 -297 0
-58 495 180 0
-109 462 -282 0
158 -280 322 0
-353 395 12 0
340 109 449 0
46 -321 -230 0
195 200 -263 0
299 -496 -182 0
-472 259 -152 0
-326 -215 76 0
-285 -414 -400 0
196 227 -275 0
-195 414 435 0
-150 -197 285 0
373 462 -509 0
-389 181 510 0
73 -380 -439 0
-299 476 82 0
-128 276 -21 0
336 109 355 0
-134 -237 -196 0
401 297 -363 0
-270 417 441 0
95 -3 -268 0
-71 -395 -299 0
-100 -56 -405 0
181 -119 -163 0
-226 -414 97 0
-257 355 232 0
-379 -404 -414 0
476 310 -244 0
497 411 -81 0
-494 -478 -155 0
-15 -77 -340 0
-228 135 6 0
158 -294 376 0
-478 -403 -349 0
316 485 351 0
81 -395 65 0
-241 -353 165 0
-329 -347 -419 0
88 -241 -357 0
-263 467 -498 0
-32 -324 -502 0
346 32 445 0
-238 -401 -93 0
-193 -207 184 0
82 -438 -234 0
-349 255 314 0
-222 446 335 0
-121 -280 10 0
428 -115 -28 0
81 371 91 0
144 210 72 0
-65 -86 -470 0
-238 375 226 0
79 -337 482 0
-314 218 44 0
-418 101 -93 0
-251 456 -196 0
-433 471 -142 0
263 375 -445 0
206 -450 -155 0
172 178 -84 0
284 192 -436 0
-156 73 -416 0
-399 -6 -4 0
505 -302 -381 0
385 362 10 0
-499 -425 -260 0
-209 -42 245 0
1 428 238 0
-394 370 477 0
-25 443 18 0
471 59 254 0
-231 285 334 0
213 -333 158 0
-215 189 -346 0
-334 477 404 0
212 -261 -339 0
137 433 -160 0
-215 -124 176 0
-348 -491 -277 0
-100 -38 -364 0
-39 42 -438 0
-375 423 -73 0
267 478 -301 0
-388 107 -214 0
-303 -198 -408 0
-4 385 259 0
-191 2 327 0
-363 237 137 0
-21 230 -263 0
503 -472 18 0
-167 268 247 0
-45 -7 -211 0
23 -114 425 0
49 511 -342 0
-4 -109 -193 0
179 185 -149 0
387 -42 43 0
70 389 307 0
-436 274 -142 0
-433 68 -216 0
-194 -48 -228 0
61 453 -161 0
-490 -340 -291 0
42 7 408 0
34 -36 359 0
-278 38 154 0
193 459 -347 0
-100 -159 187 0
431 -51 -18 0
94 337 138 0
-117 -100 189 0
-240 -244 141 0
343 -38 -116 0
-270 224 -430 0
453 -28 196 0
-167 455 68 0
21 60 447 0
-491 303 -98 0
-215 -111 213 0
-451 -426 -57 0
107 -473 -459 0
15 -385 181 0
-35 -377 -431 0
-511 -443 8 0
-296 215 -391 0
255 -99 -200 0
-263 117 292 0
-495 509 -273 0
268 413 -228 0
430 471 -138 0
-361 176 191 0
345 313 212 0
-420 -17 -85 0
-218 -361 -209 0
-84 141 63 0
459 24 469 0
-371 -188 -352 0
214 -250 -373 0
139 -249 -374 0
25 368 216 0
-195 -177 -145 0
-51 -165 -155 0
350 -290 269 0
427 56 38 0
152 -176 -139 0
-345 -484 -262 0
70 127 194 0
222 -388 -58 0
261 -14 53 0
-318 -366 -299 0
254 163 85 0
-455 -324 406 0
-348 -206 446 0
-257 397 -224 0
-458 -450 -471 0
437 -328 30 0
-438 -382 402 0
243 -43 109 0
-249 482 -174 0
-22 -231 313 0
212 -374 -246 0
465 -476 225 0
-89 73 88 0
193 262 -253 0
391 -129 395 0
289 417 17 0
-455 467 265 0
-41 347 -292 0
-266 -94 199 0
-1 170 -74 0
-89 446 72 0
-267 -271 -61 0
-167 473 319 0
6 118 384 0
243 -93 56 0
-119 -190 -314 0
445 14 -273 0
-123 209 294 0
-140 -488 506 0
-1 -247 356 0
-501 -414 -325 0
-325 -226 82 0
-87 407 334 0
-83 425 475 0
-501 -281 136 0
235 -7 -132 0
146 125 -121 0
281 338 498 0
-166 149 338 0
-479 264 -445 0
-323 -294 358 0
-175 -290 13 0
-409 101 286 0
351 -346 127 0
-308 148 -477 0
184 493 121 0
490 -163 -4 0
-341 -511 193 0
282 -329 31 0
307 -83 225 0
-53 -173 358 0
442 -38 419 0
-336 271 -122 0
82 -241 -422 0
204 -200 334 0
246 251 396 0
351 -114 -67 0
265 -383 256 0
230 -211 -472 0
304 239 -334 0
-412 -178 490 0
-249 70 392 0
-95 69 -52 0
394 -117 450 0
-188 298 224 0
-76 373 429 0
-473 -96 352 0
-65 -272 88 0
-428 -53 45 0
342 332 -490 0
362 503 62 0
-238 -196 -171 0
285 169 -212 0
-70 165 -296 0
60 -243 300 0
-15 160 -8 0
494 -459 208 0
338 402 -336 0
49 -62 -370 0
-167 -512 189 0
-367 -196 173 0
377 -251 429 0
-465 -451 50 0
447 -74 -68 0
400 -224 -296 0
48 -61 380 0
22 190 483 0
378 -481 -136 0
-207 158 -52 0
-197 -502 -233 0
-266 -8 441 0
-254 127 4 0
-461 -35 -119 0
-27 -426 53 0
157 -459 -483 0
286 280 -335 0
450 201 -216 0
-179 -502 227 0
-146 232 437 0
-490 -56 122 0
332 -337 -184 0
-362 324 224 0
-397 183 56 0
-338 -383 -41 0
-235 -184 -487 0
-398 -241 -511 0
-491 -157 84 0
486 197 -66 0
488 -287 -315 0
221 -469 28 0
-409 271 -432 0
-246 -277 468 0
345 -377 116 0
-164 -306 117 0
102 368 -61 0
73 79 -452 0
-63 429 315 0
-208 -450 -287 0
-78 -81 130 0
-189 203 496 0
40 376 462 0
127 80 -458 0
-246 -8 290 0
226 96 -251 0
-188 -12 -41 0
81 347 -367 0
10 -240 -245 0
-74 266 405 0
103 96 235 0
74 241 -237 0
102 486 -171 0
44 -260 -462 0
432 132 7 0
-45 -196 -360 0
-102 445 312 0
-468 105 -434 0
-175 -456 402 0
-246 38 358 0
-29 -466 152 0
-492 433 443 0
-31 126 -146 0
71 115 164 0
407 -157 -234 0
-63 340 -89 0
-81 15 -323 0
-389 493 -20 0
-291 -171 38 0
-479 -320 -210 0
221 -364 63 0
-180 -403 132 0
-304 -382 -462 0
372 503 451 0
-222 51 6 0
-52 -459 -138 0
-126 34 116 0
-144 193 -408 0
-306 123 281 0
415 501 -221 0
-91 283 346 0
371 161 -45 0
-272 -491 70 0
-512 316 109 0
257 424 -445 0
422 494 -295 0
41 -4 131 0
463 -280 447 0
-361 49 -121 0
85 370 -51 0
-214 -477 -463 0
215 459 451 0
451 359 -162 0
-176 503 366 0
164 156 202 0
449 287 165 0
-331 -232 436 0
123 -444 -23 0
-112 -345 -301 0
-173 381 -3 0
-132 37 45 0
26 466 -345 0
-265 281 -175 0
-481 -502 -441 0
457 452 82 0
362 -220 -187 0
-385 -322 286 0
-36 -424 395 0
134 247 -67 0
-255 -5 274 0
130 -306 -413 0
-16 -319 -366 0
-178 372 472 0
-182 57 -387 0
-11 246 319 0
-78 487 106 0
33 339 502 0
39 107 188 0
29 -144 -58 0
243 -258 -411 0
224 -286 141 0
38 493 164 0
-232 -8 -282 0
480 -418 256 0
217 -305 -410 0
222 361 -322 0
-175 449 214 0
-21 2 498 0
383 -380 -104 0
41 -95 -103 0
-129 -85 81 0
284 451 -268 0
-362 465 -51 0
350 197 -56 0
-347 -96 -432 0
272 -12 83 0
-35 -385 -333 0
25 -8 15 0
-123 121 -330 0
422 -412 -432 0
-431 -111 231 0
139 53 104 0
338 477 -23 0
286 391 -203 0
224 285 27 0
-22 -407 309 0
-216 -11 416 0
496 -364 -382 0
-323 -491 455 0
-74 -470 343 0
214 365 394 0
429 -107 -416 0
38 -313 144 0
-83 -78 286 0
-268 279 298 0
224 -496 60 0
-306 26 -28 0
-230 -74 -504 0
-467 -68 -65 0
-316 426 -330 0
51 477 -294 0
418 -311 321 0
-220 266 -445 0
-389 -235 -300 0
183 180 508 0
271 -160 484 0
1 484 -446 0
-450 477 110 0
345 -334 -383 0
224 -38 -29 0
-458 -166 340 0
213 -326 -206 0
161 -334 225 0
245 -159 -35 0
-49 286 136 0
-229 -378 -166 0
215 361 290 0
36 -309 -439 0
304 79 427 0
137 385 -207 0
-507 206 289 0
-362 -504 64 0
-500 -199 173 0
231 -426 -439 0
-466 179 119 0
-157 181 -397 0
263 91 -417 0
509 202 152 0
449 -360 309 0
-399 248 174 0
253 -321 283 0
50 246 200 0
-179 309 41 0
509 9 484 0
-161 -323 285 0
112 -17 -139 0
-144 166 -300 0
210 469 -152 0
70 -413 277 0
-76 -466 -30 0
-222 -324 162 0
325 398 -9 0
10 392 -414 0
30 498 -449 0
406 190 -161 0
403 -371 26 0
-342 -169 -482 0
15 343 -164 0
-327 -162 120 0
432 -132 -438 0
-404 213 418 0
-26 -35 -173 0
169 -275 363 0
-215 362 -446 0
125 215 -407 0
137 -484 -103 0
-460 463 1 0
428 -313 177 0
415 -500 -174 0
-141 -162 449 0
-47 477 -229 0
-139 416 407 0
-5 162 -409 0
-487 215 -278 0
-190 128 -182 0
410 98 324 0
-5 -195 -142 0
-64 448 422 0
7 -331 208 0
30 278 -41 0
119 396 -71 0
357 -139 433 0
209 -323 429 0
-450 -178 396 0
171 345 270 0
-457 491 404 0
248 363 360 0
-54 -203 -200 0
276 -142 -441 0
510 -393 423 0
-292 277 397 0
205 -437 -329 0
511 238 180 0
-96 465 267 0
503 376 -13 0
-233 276 430 0
-509 269 -11 0
166 -282 -337 0
-285 -438 343 0
493 79 -161 0
-381 218 -34 0
274 360 354 0
-137 -395 -318 0
40 82 -452 0
-347 418 -130 0
-182 -60 -391 0
-502 239 143 0
364 369 -225 0
-169 1 150 0
-180 -440 -289 0
-67 195 70 0
-318 293 -400 0
-294 322 -398 0
146 503 91 0
-104 -169 149 0
-419 367 -243 0
-60 -492 172 0
43 -83 358 0
451 -187 -31 0
410 -424 193 0
-428 -304 50 0
429 303 -296 0
-55 -448 304 0
225 -213 303 0
-14 -405 316 0
-496 404 245 0
444 421 -161 0
-210 -172 125 0
430 304 123 0
352 -180 -35 0
6 -428 -286 0
270 339 -501 0
348 -421 -406 0
212 40 2 0
-247 364 -213 0
272 -148 297 0
397 477 186 0
-82 407 214 0
376 47 -500 0
-23 -270 -448 0
152 331 -399 0
-116 -202 400 0
-348 313 -404 0
-376 -194 -167 0
-124 123 14 0
109 474 -7 0
-193 -180 -225 0
308 -201 -363 0
-327 480 -123 0
99 -307 404 0
-363 -376 -285 0
-362 -267 351 0
-6 165 -450 0
-360 469 -417 0
-338 -28 -448 0
-199 -147 -141 0
281 -293 -245 0
-111 275 375 0
367 468 -108 0
-53 -288 -70 0
-256 294 506 0
374 127 -288 0
50 492 113 0
-170 488 509 0
187 -289 430 0
-138 34 127 0
188 154 1 0
123 3 382 0
-242 -210 116 0
-472 -32 -407 0
-309 288 332 0
189 -448 -179 0
-73 112 -64 0
427 86 -376 0
210 -111 374 0
-341 -93 115 0
502 14 33 0
-215 -415 107 0
108 446 346 0
324 166 -195 0
497 -400 188 0
495 -402 499 0
-467 237 486 0
-163 -2 -20 0
-363 44 511 0
-190 -331 6 0
-402 -509 -354 0
275 116 268 0
236 -283 -486 0
81 389 -487 0
450 -192 303 0
151 -451 -44 0
77 -221 499 0
-206 -409 -477 0
436 398 417 0
-474 35 -183 0
232 -189 292 0
255 -393 -470 0
195 298 -286 0
460 -87 -218 0
17 -325 420 0
-504 276 -228 0
-400 237 285 0
-387 -295 43 0
121 -308 41 0
264 452 80 0
-468 22 -162 0
-507 298 473 0
100 49 -493 0
409 -168 323 0
444 -304 -227 0
-83 -192 -203 0
-78 40 -374 0
439 38 -258 0
199 -20 -411 0
444 448 441 0
-338 35 -501 0
167 108 -280 0
19 -83 -80 0
-252 293 431 0
481 106 -335 0
306 410 91 0
22 -506 -393 0
-30 418 -186 0
-349 51 -48 0
-96 -503 64 0
61 206 135 0
-55 185 199 0
207 -189 201 0
54 151 393 0
-365 502 -186 0
-459 -476 -312 0
30 180 384 0
-58 -115 -284 0
136 -216 268 0
423 208 -402 0
-106 62 374 0
-173 135 -279 0
222 159 227 0
-238 -78 -497 0
328 -376 -495 0
-199 -479 259 0
-225 480 103 0
350 -327 -416 0
434 282 163 0
136 -141 75 0
-206 -402 299 0
395 285 170 0
271 -202 504 0
-139 -40 -250 0
203 461 493 0
-69 373 -214 0
-41 -147 -105 0
-229 53 7 0
71 -427 370 0
131 -427 471 0
184 65 428 0
433 290 126 0
330 -25 434 0
377 407 -286 0
364 -452 257 0
-379 120 -277 0
-463 -92 111 0
-245 -24 448 0
274 259 249 0
26 -496 -79 0
-448 -150 125 0
319 421 -49 0
-305 -243 -46 0
325 -135 -440 0
303 -206 387 0
-36 -255 363 0
475 -36 153 0
-202 363 57 0
-328 -212 -490 0
166 359 -224 0
358 114 40 0
311 -283 368 0
4 -126 -59 0
269 395 -438 0
-66 -400 351 0
-151 243 398 0
40 54 81 0
-291 16 473 0
-268 111 342 0
131 -373 -87 0
427 214 -493 0
-110 382 -430 0
58 -398 -92 0
-472 49 91 0
163 451 128 0
289 66 451 0
374 -217 -72 0
-147 313 175 0
195 90 -82 0
-291 360 205 0
180 -197 289 0
-187 -275 197 0
-100 -334 244 0
496 -194 73 0
491 -335 -103 0
-173 -128 -307 0
-78 472 -52 0
71 -491 -492 0
-110 337 -251 0
-417 -436 129 0
-113 -288 121 0
-214 -269 -479 0
438 270 191 0
6 402 290 0
-279 -263 -398 0
-139 52 -381 0
202 -355 112 0
-195 27 100 0
-37 427 418 0
-12 -355 -204 0
-174 443 292 0
509 350 257 0
156 -447 199 0
-178 237 -40 0
379 272 30 0
-4 60 -45 0
389 -447 493 0
307 -173 -407 0
-504 -71 419 0
263 276 -4 0
-417 166 -253 0
187 135 332 0
-511 372 63 0
-397 -317 -210 0
445 80 78 0
-42 126 -461 0
377 89 423 0
405 62 93 0
204 -21 -72 0
-232 74 361 0
-187 -66 -243 0
109 363 -160 0
487 457 -350 0
-43 -116 304 0
327 -51 287 0
491 11 -287 0
65 230 -143 0
422 -93 -174 0
-76 171 -270 0
155 -446 -69 0
-376 -118 19 0
-150 -502 188 0
-43 342 -257 0
-463 -242 -295 0
490 166 -483 0
-300 -80 146 0
-302 353 95 0
396 -478 -417 0
-340 26 434 0
-425 488 -100 0
375 221 -28 0
-181 217 -272 0
-210 367 5 0
-512 434 -112 0
176 -346 -301 0
-282 7 447 0
-454 440 282 0
-494 254 -449 0
-292 -272 66 0
-72 -481 168 0
438 379 -472 0
460 180 53 0
56 -315 -38 0
422 270 -271 0
-231 -277 -159 0
-70 -175 444 0
86 -421 -156 0
-41 4 222 0
266 34 -57 0
-176 512 453 0
7 -160 406 0
-163 -497 -472 0
-201 340 65 0
-298 -353 211 0
61 273 334 0
63 -176 -264 0
53 165 -325 0
-202 76 -342 0
158 38 -339 0
34 -121 476 0
252 394 -253 0
40 -275 -184 0
183 -106 50 0
-441 -186 400 0
-490 -369 83 0
-425 233 32 0
-212 -455 399 0
308 -147 324 0
-413 -134 -109 0
148 363 191 0
288 76 -286 0
40 -44 -103 0
-150 374 -498 0
-210 -169 -9 0
-124 176 -457 0
163 -255 -335 0
-129 -275 343 0
-129 -354 -87 0
-73 -436 -194 0
-137 239 410 0
-325 351 172 0
77 -317 68 0
13 330 -317 0
-341 184 371 0
-34 95 64 0
181 -55 -309 0
40 283 -315 0
292 -7 131 0
-11 218 -221 0
423 -200 319 0
206 307 489 0
-57 328 -187 0
228 -475 -342 0
504 -25 -404 0
184 -330 -81 0
189 -160 251 0
-267 136 -334 0
134 -191 -94 0
120 -275 332 0
-273 407 228 0
228 197 -28 0
123 -278 27 0
46 -257 -228 0
46 -366 291 0
265 -489 104 0
-291 323 -23 0
391 -9 363 0
148 162 -485 0
114 173 -87 0
-156 201 -508 0
-88 -262 145 0
250 -325 342 0
-292 -78 509 0
-172 210 442 0
270 265 -82 0
-221 -185 -480 0
78 423 401 0
496 11 -89 0
474 7 487 0
-14 -510 331 0
49 -465 433 0
490 169 -501 0
-463 299 217 0
207 -415 -474 0
-414 -485 -169 0
445 219 -91 0
11 38 40 0
-222 64 -43 0
236 -344 -188 0
214 -76 -162 0
259 -329 -130 0
-506 -92 283 0
283 -408 -338 0
-274 505 -348 0
-486 146 209 0
351 161 -394 0
-141 -51 -366 0
388 341 -11 0
-110 234 -486 0
156 118 325 0
-157 450 484 0
409 -104 312 0
-24 -344 -255 0
411 -228 19 0
-24 -120 -72 0
-359 182 -179 0
384 -44 -33 0
71 -345 456 0
-391 -92 -48 0
-85 -407 190 0
168 -270 -282 0
-94 -510 362 0
404 230 -507 0
-82 -363 345 0
-125 20 -9 0
260 -311 -1 0
412 477 220 0
15 234 450 0
189 101 -412 0
249 441 -173 0
401 105 -454 0
-506 313 401 0
12 327 259 0
-466 -175 -416 0
-142 -194 -259 0
429 -181 -176 0
-137 62 -172 0
490 -488 -158 0
-418 470 -400 0
-50 -369 -292 0
-403 147 311 0
274 -113 365 0
-284 385 -357 0
-153 476 317 0
90 -381 -175 0
473 -181 -207 0
78 302 297 0
95 -99 247 0
424 -476 -97 0
-208 231 49 0
-154 -209 -142 0
53 -231 374 0
-122 -337 -390 0
-492 -300 387 0
20 -297 -179 0
-445 190 469 0
-225 295 416 0
191 -305 504 0
-155 358 -25 0
448 -46 330 0
267 -369 -308 0
-231 -285 -221 0
-234 213 296 0
354 123 -9 0
-388 130 -38 0
-26 356 29 0
105 171 -509 0
170 21 -321 0
-349 411 -147 0
-150 -132 134 0
-282 -411 66 0
429 -37 -443 0
161 446 118 0
13 453 -107 0
-465 116 -393 0
379 -43 -366 0
-256 -96 -399 0
-485 247 278 0
167 -171 -438 0
-77 -366 -405 0
281 -90 202 0
419 107 148 0
480 123 -218 0
279 -398 91 0
-204 -186 181 0
410 -340 476 0
-193 511 -32 0
416 -78 -503 0
352 331 -119 0
-358 -384 108 0
-393 -317 -406 0
-397 93 224 0
244 213 -273 0
441 224 78 0
-333 -248 41 0
298 57 224 0
452 -467 497 0
344 -130 168 0
-383 448 -111 0
214 30 289 0
166 -193 -279 0
-280 -509 -35 0
156 37 -480 0
126 190 357 0
489 98 60 0
-308 376 -489 0
-313 -95 178 0
411 -213 296 0
510 -200 -126 0
395 263 -477 0
-464 228 366 0
373 378 -15 0
351 -117 -235 0
39 326 -257 0
119 -340 -74 0
-196 -117 306 0
376 -152 465 0
352 -441 17 0
278 480 373 0
142 -440 478 0
-42 272 433 0
290 205 -378 0
-220 -22 -380 0
-107 76 -510 0
156 -27 326 0
430 145 303 0
426 498 4 0
216 36 452 0
-375 464 -92 0
-496 233 83 0
32 -287 -207 0
-252 310 -410 0
-310 286 18 0
-29 483 -243 0
413 145 277 0
-168 -139 338 0
-80 59 278 0
102 -311 -240 0
343 322 -398 0
93 63 484 0
504 54 -280 0
-124 -393 -174 0
-229 259 196 0
-194 -268 -277 0
-27 440 -11 0
-443 242 62 0
-235 145 -272 0
-293 -301 325 0
-438 -202 -26 0
-373 322 423 0
-205 -208 171 0
-465 502 -262 0
64 -468 -80 0
-118 261 250 0
103 -416 -384 0
-270 108 341 0
142 503 234 0
465 -136 -403 0
318 -388 236 0
112 -326 -491 0
450 63 -149 0
-366 -174 176 0
-470 257 -129 0
-497 52 -197 0
-252 119 -250 0
-265 -483 453 0
234 38 307 0
-18 10 -503 0
489 292 67 0
173 -36 490 0
-286 -361 337 0
-494 391 287 0
-381 259 -208 0
-21 58 -252 0
-497 -23 -506 0
216 -3 376 0
-460 487 447 0
211 308 -471 0
411 -471 -158 0
116 187 470 0
-427 217 334 0
-208 358 -181 0
459 -350 -71 0
264 -418 -196 0
5 -454 -329 0
250 491 287 0
143 -198 423 0
-356 427 -174 0
93 30 246 0
180 -53 -455 0
-450 -337 364 0
273 96 -104 0
93 -241 510 0
32 -418 -439 0
144 280 -218 0
-242 -133 278 0
-151 -183 90 0
317 -10 125 0
-54 77 -344 0
20 285 -263 0
508 249 -427 0
-35 -121 -132 0
-314 305 -89 0
27 -384 -61 0
-433 5 281 0
112 399 -60 0
-380 455 385 0
-196 -480 345 0
-146 465 68 0
275 -141 -199 0
-82 368 81 0
-183 -11 -209 0
-123 -172 496 0
-12 278 -212 0
151 -379 -412 0
149 -156 254 0
5 271 192 0
-227 -338 -170 0
-209 321 393 0
430 -296 228 0
189 -427 -366 0
210 -365 367 0
117 -144 143 0
-431 192 -388 0
-345 -305 329 0
-423 -349 -431 0
301 93 64 0
-323 -273 -327 0
-291 -159 143 0
366 -421 31 0
154 -161 -342 0
497 -280 90 0
203 65 -437 0
325 -111 -292 0
169 -442 -496 0
-264 -49 48 0
-429 366 -116 0
434 208 -338 0
-55 -445 190 0
-64 -340 36 0
-388 434 382 0
-468 256 -151 0
299 290 125 0
-117 -248 -175 0
177 254 324 0
454 414 -460 0
270 173 24 0
-26 479 310 0
188 366 -399 0
25 -291 510 0
-412 -273 140 0
-428 -455 -115 0
-228 424 -195 0
-509 129 121 0
-179 -82 -205 0
-474 -285 -206 0
-335 -328 108 0
204 293 101 0
-511 -14 -214 0
-338 451 -467 0
417 -154 134 0
50 -158 -116 0
-467 -373 -149 0
251 386 399 0
461 -345 274 0
60 353 -204 0
-273 138 501 0
-291 447 -485 0
57 432 -300 0
340 187 109 0
-301 7 -173 0
459 505 102 0
48 476 -325 0
-141 -374 -403 0
-416 124 15 0
106 -453 -449 0
356 -267 403 0
483 -69 499 0
-307 230 149 0
471 420 279 0
340 386 -387 0
-509 343 406 0
23 351 -268 0
-452 267 91 0
400 393 -92 0
285 -240 -49 0
378 -157 -170 0
-206 6 -347 0
265 6 -370 0
-449 -157 68 0
146 438 455 0
42 160 -225 0
-134 -9 -81 0
43 -347 145 0
249 39 235 0
500 -247 -334 0
-389 -491 -126 0
-168 154 135 0
403 361 383 0
59 -397 380 0
360 -205 -497 0
-62 -442 198 0
343 -285 510 0
-309 195 24 0
-37 364 -299 0
-438 -490 47 0
151 212 -509 0
373 -180 265 0
-445 -60 -417 0
-338 156 507 0
141 -447 -44 0
184 -194 426 0
477 56 -204 0
-330 -507 54 0
-300 -262 -334 0
329 415 -397 0
180 317 -332 0
96 460 -233 0
-283 -102 339 0
1 475 242 0
-139 -433 440 0
-321 58 96 0
286 132 392 0
-206 348 -318 0
63 170 -453 0
170 -269 -271 0
-223 312 502 0
-250 -3 -352 0
-336 -137 -491 0
-450 295 -241 0
423 481 56 0
-148 76 -247 0
382 258 -309 0
-313 485 336 0
94 382 -179 0
-471 81 163 0
226 -390 -152 0
-478 -382 490 0
362 197 307 0
305 -125 218 0
443 62 267 0
-135 -179 477 0
-297 33 -217 0
-31 -477 -452 0
-144 -45 205 0
-246 -63 130 0
-138 -297 -316 0
45 -41 401 0
82 406 -18 0
240 45 -255 0
169 500 369 0
47 383 163 0
-506 -173 235 0
471 219 -350 0
-251 -383 141 0
-19 -390 188 0
-276 436 -335 0
-417 -100 -361 0
12 -418 178 0
438 178 -165 0
-499 -29 -149 0
-318 11 -132 0
425 401 473 0
-71 -110 116 0
130 -23 357 0
21 -100 -467 0
-453 91 90 0
445 64 161 0
-459 -127 -367 0
290 53 483 0
-384 471 -324 0
293 -334 444 0
159 -419 351 0
-390 262 308 0
-378 395 -233 0
-245 162 503 0
461 -474 64 0
153 235 241 0
3 -186 -102 0
395 224 -8 0
-58 303 -80 0
-433 -429 -365 0
-60 -200 216 0
-161 137 83 0
160 -294 -8 0
-93 425 -98 0
492 358 -163 0
493 -95 -56 0
34 -107 382 0
-280 -268 -133 0
294 -488 83 0
439 214 191 0
-484 -27 293 0
-200 108 -454 0
279 -114 53 0
-412 -508 -32 0
157 6 424 0
113 -341 -355 0
-239 -41 -273 0
237 -281 -333 0
-370 34 -294 0
259 -430 -453 0
-68 -354 -457 0
182 225 -150 0
57 -417 67 0
26 -299 370 0
-466 -328 462 0
-253 270 108 0
-498 11 -311 0
-373 445 -453 0
-156 -134 234 0
115 232 209 0
213 -31 59 0
-461 -319 445 0
402 -188 -496 0
-4 -187 95 0
-29 476 -88 0
-212 256 -398 0
139 354 -260 0
220 -419 -283 0
475 -184 122 0
497 -75 324 0
130 97 -164 0
271 -55 -397 0
109 -125 297 0
11 -478 412 0
-147 -455 -204 0
-461 -349 -73 0
112 -510 -183 0
252 67 -203 0
113 -416 71 0
344 210 -381 0
147 -440 267 0
-512 -229 138 0
-436 365 332 0
-211 -132 -293 0
316 173 -341 0
-54 203 454 0
-53 319 303 0
373 -26 -254 0
-81 -363 -194 0
-483 12 376 0
-509 165 -5 0
419 487 282 0
-490 97 58 0
431 -346 -185 0
-487 -325 435 0
448 246 235 0
-242 92 449 0
108 122 155 0
255 117 269 0
-467 -233 371 0
-260 -441 -377 0
-427 367 330 0
-11 397 -137 0
-240 396 -76 0
-337 17 -134 0
209 -6 496 0
-92 156 -184 0
-476 -359 8 0
-121 71 421 0
432 -203 213 0
415 184 -151 0
-349 -387 278 0
-452 -479 499 0
321 148 -17 0
65 495 321 0
-475 -374 458 0
-181 -294 42 0
275 -414 300 0
134 -365 214 0
82 37 47 0
205 -221 -436 0
117 -92 74 0
-364 366 -248 0
-56 -290 314 0
-60 -277 19 0
103 -387 207 0
140 -139 -66 0
-186 -207 -255 0
-274 -20 307 0
64 472 93 0
236 -1 -196 0
108 280 -201 0
-161 -254 302 0
-232 319 256 0
-426 -287 475 0
380 -186 -372 0
-58 -221 12 0
420 498 -484 0
267 32 454 0
-50 441 -438 0
-225 -435 -106 0
160 444 -108 0
-92 -384 -365 0
318 -77 342 0
-70 -75 -408 0
-368 299 441 0
-174 -274 375 0
260 297 122 0
437 -167 137 0
-161 -139 -469 0
106 433 -418 0
499 -34 -327 0
-494 -384 -87 0
-258 31 289 0
-171 -393 -379 0
-89 -226 -213 0
188 325 50 0
-487 420 -374 0
49 509 128 0
42 233 461 0
-268 -445 -31 0
14 -107 -150 0
-391 -89 -491 0
-492 18 176 0
-358 -190 267 0
351 -501 -245 0
-192 245 341 0
-481 -158 -443 0
-387 -446 -300 0
135 172 235 0
132 -203 -103 0
-68 443 -469 0
-166 95 -240 0
161 333 270 0
214 -458 203 0
201 -263 -49 0
-52 -167 378 0
495 -75 -299 0
288 -496 -446 0
-415 -86 199 0
40 -170 -296 0
153 -425 -140 0
367 -147 -466 0
371 -402 -304 0
378 -107 -508 0
295 -177 -45 0
38 206 -492 0
53 208 184 0
338 358 -332 0
-336 403 409 0
120 47 -489 0
-186 -325 478 0
-397 -411 -423 0
158 425 65 0
-194 -317 -34 0
223 -81 30 0
381 -427 -85 0
-397 201 95 0
478 -199 342 0
299 -501 407 0
-10 -7 99 0
-488 -341 129 0
-469 -447 -118 0
-321 -478 -482 0
486 73 62 0
-226 -317 447 0
111 -49 299 0
40 19 146 0
231 -351 220 0
206 -444 -502 0
-377 475 -252 0
136 351 -303 0
-204 -438 281 0
-314 -102 -388 0
-78 414 138 0
-262 401 209 0
-508 -141 255 0
-359 -35 266 0
-38 -477 21 0
169 -460 -428 0
209 366 405 0
91 148 -154 0
-263 482 240 0
52 -305 240 0
480 326 -47 0
19 -416 -125 0
-142 331 -44 0
-506 -105 -168 0
102 -85 184 0
500 -468 -510 0
346 -142 -132 0
343 426 -25 0
24 72 57 0
-125 342 469 0
266 282 -289 0
-374 280 -290 0
244 157 -502 0
228 353 211 0
-72 284 198 0
125 -11 463 0
64 454 320 0
-404 107 -385 0
-486 -86 49 0
-93 -430 -442 0
-138 -154 266 0
382 -19 -17 0
149 -240 -128 0
104 378 365 0
168 96 -427 0
-134 18 419 0
-30 -166 -241 0
511 381 411 0
329 509 484 0
-286 149 451 0
114 -43 298 0
-191 180 37 0
481 509 429 0
409 -8 35 0
-308 119 456 0
209 -109 386 0
-52 -305 -451 0
-44 -438 409 0
413 -271 -510 0
-150 58 236 0
272 360 -30 0
464 169 -334 0
-247 473 -245 0
-7 -164 367 0
356 -53 345 0
-202 62 35 0
-43 125 -406 0
-325 144 -453 0
372 185 -459 0
-349 -289 -80 0
334 -93 -97 0
-319 415 -52 0
243 111 -268 0
-212 403 -324 0
228 -471 -259 0
-160 206 -172 0
460 -319 -502 0
-69 -358 480 0
-171 -306 -200 0
442 -151 170 0
463 207 -399 0
64 -151 504 0
423 -201 13 0
-210 -303 -450 0
12 -480 131 0
69 402 240 0
197 299 367 0
-51 229 444 0
213 35 -287 0
-423 -186 50 0
495 254 -175 0
-57 -315 -278 0
-4 171 335 0
227 32 115 0
-392 197 203 0
-470 -241 193 0
118 323 -400 0
-496 485 -366 0
150 -468 -378 0
-428 -377 278 0
7 80 487 0
58 -259 293 0
-258 325 -408 0
38 36 210 0
-364 -6 461 0
167 -232 -381 0
402 126 105 0
-133 141 172 0
12 125 -489 0
239 15 166 0
274 183 -247 0
-98 186 212 0
286 -389 473 0
358 -146 103 0
13 -159 72 0
-26 -369 464 0
-443 135 90 0
-363 -501 -428 0
32 511 36 0
-3 77 429 0
272 -35 290 0
137 -24 30 0
-178 188 -371 0
140 -253 109 0
-361 344 -49 0
303 -75 -48 0
-187 -172 -287 0
-225 -71 -67 0
-411 388 -273 0
-302 479 -472 0
-465 -247 231 0
314 316 -415 0
32 486 -363 0
85 -189 -437 0
-167 -287 -478 0
-397 -422 -344 0
215 433 -65 0
-288 320 -241 0
468 249 511 0
-106 117 227 0
58 238 -336 0
-406 457 -268 0
-88 167 -335 0
90 328 -298 0
342 391 -47 0
224 320 -342 0
-88 191 -138 0
-34 425 -373 0
-227 276 -472 0
181 -270 -45 0
93 427 -406 0
214 -20 351 0
496 303 302 0
-73 -86 -29 0
362 -477 -259 0
23 -462 414 0
375 437 445 0
-316 64 274 0
177 48 -421 0
-153 -174 -181 0
166 335 -285 0
401 -464 -441 0
-223 -11 -227 0
334 -337 336 0
511 -352 -243 0
218 18 303 0
398 -318 -346 0
-361 273 -57 0
-147 -150 -456 0
-26 93 21 0
-398 96 -238 0
79 -139 -416 0
472 271 -197 0
-200 10 427 0
-490 -74 469 0
-440 -113 250 0
-63 19 -77 0
-180 -7 152 0
253 -350 -396 0
-401 331 61 0
-42 -188 -353 0
363 254 -93 0
-463 240 -138 0
152 356 -137 0
51 181 -134 0
-281 -15 -493 0
253 497 59 0
303 -40 144 0
-239 -428 -408 0
211 395 -220 0
-264 -349 402 0
-262 -72 310 0
184 483 -226 0
-226 74 38 0
-63 200 179 0
-378 195 -64 0
394 104 90 0
170 -248 -346 0
-104 -173 -3 0
-356 -139 -157 0
185 -350 -499 0
400 459 197 0
-469 124 230 0
90 -138 65 0
10 64 273 0
-271 71 167 0
-304 -492 497 0
-323 357 -56 0
378 77 -110 0
-492 60 -185 0
-511 10 -102 0
31 -260 147 0
489 159 97 0
299 268 361 0
-296 -464 48 0
-122 149 -499 0
455 -136 -309 0
420 201 -327 0
240 13 109 0
206 -503 -170 0
-350 276 -508 0
-399 220 -238 0
-264 204 -401 0
-75 -136 -33 0
-59 507 6 0
173 404 135 0
201 -133 -435 0
440 511 480 0
-158 321 272 0
-462 456 -445 0
-86 206 -483 0
82 -107 260 0
351 -127 -11 0
202 26 -41 0
338 214 71 0
-132 -352 -343 0
-448 -331 385 0
-92 -249 421 0
333 -419 -389 0
22 294 17 0
-141 -85 -457 0
257 -382 -481 0
411 195 -88 0
-275 -102 425 0
-318 -222 353 0
321 -172 -456 0
-261 217 -33 0
200 455 -11 0
-152 -491 65 0
-123 63 462 0
172 384 -405 0
464 42 120 0
254 437 456 0
-455 -444 347 0
149 -502 -426 0
-199 480 102 0
51 -459 343 0
141 -503 250 0
-407 -246 303 0
52 265 -481 0
-71 91 313 0
-2 -423 -94 0
-423 345 -15 0
-441 374 223 0
-503 337 35 0
-110 -454 360 0
375 28 -383 0
-110 -99 322 0
-347 169 388 0
308 483 -287 0
426 -217 64 0
-6 -469 358 0
-401 -276 258 0
-334 60 39 0
314 210 85 0
-506 -348 -372 0
256 52 284 0
-35 -163 -447 0
455 506 -430 0
18 -368 -246 0
-407 4 -227 0
-505 88 215 0
286 -107 399 0
333 -123 -250 0
-484 -50 -18 0
93 -178 21 0
-300 -294 347 0
-467 40 -477 0
58 -139 248 0
132 423 -47 0
-133 -422 -376 0
-180 -376 422 0
136 -324 -14 0
230 424 -55 0
190 427 369 0
-209 73 -97 0
497 512 -213 0
-215 43 -95 0
362 147 407 0
347 -11 -312 0
-13 -452 210 0
477 302 -169 0
251 339 -78 0
-97 -58 460 0
429 62 251 0
-191 247 -31 0
248 59 209 0
293 127 367 0
-12 27 498 0
265 -415 408 0
132 -19 -478 0
365 129 276 0
-259 359 253 0
423 101 379 0
-457 324 341 0
-80 -442 489 0
-499 -440 -33 0
-404 -254 144 0
-326 380 229 0
-388 213 204 0
-268 389 -222 0
-104 -473 -194 0
479 -40 -7 0
83 -138 205 0
-431 -426 -75 0
-59 5 -393 0
-201 329 188 0
373 -369 268 0
132 -366 432 0
-56 362 338 0
-216 102 41 0
233 -199 -254 0
-248 303 512 0
-393 401 259 0
446 -478 -501 0
-375 -467 89 0
-3 445 -471 0
-278 -512 71 0
-156 -148 -496 0
-306 329 11 0
40 94 -280 0
-97 510 410 0
468 -120 -189 0
-510 -472 -154 0
-184 -88 -262 0
-443 320 420 0
419 -483 -23 0
-28 405 -178 0
338 -377 114 0
117 -302 349 0
357 48 12 0
-9 146 -331 0
480 -389 256 0
121 82 -38 0
30 151 337 0
345 -291 428 0
202 256 -417 0
487 -34 -423 0
154 360 -247 0
-472 -473 -423 0
-472 215 -409 0
-222 95 293 0
431 308 -364 0
135 -387 397 0
-77 11 -64 0
-302 -121 422 0
380 63 -395 0
481 -88 6 0
156 40 -51 0
500 100 -379 0
-87 508 -26 0
-234 210 171 0
129 -338 -317 0
509 328 289 0
-259 209 -428 0
279 -233 -397 0
113 -488 -90 0
61 -420 43 0
-343 -354 -300 0
-435 -89 397 0
297 441 -349 0
97 241 -193 0
158 -330 445 0
423 -442 -136 0
411 171 429 0
448 101 -349 0
295 499 -271 0
180 -504 161 0
392 -431 443 0
-290 431 212 0
-297 -474 342 0
342 38 62 0
-443 373 224 0
494 -135 144 0
17 39 -121 0
-360 497 -502 0
-467 -258 -36 0
-314 -166 238 0
310 -366 123 0
60 -173 159 0
-462 36 498 0
186 147 -183 0
-61 479 201 0
29 458 -35 0
320 -265 474 0
378 64 125 0
-251 255 112 0
224 1 -51 0
421 186 365 0
-76 -416 -376 0
-210 387 130 0
-370 280 204 0
317 -356 419 0
-348 -473 112 0
-167 62 -83 0
263 322 -329 0
-479 302 -115 0
117 106 -86 0
-122 209 443 0
87 -147 135 0
-354 131 -90 0
-149 457 71 0
-407 184 -438 0
-489 33 109 0
-92 439 -378 0
-212 -403 449 0
57 30 -264 0
73 -4 437 0
199 286 41 0
17 -194 -324 0
189 -488 234 0
-282 240 -390 0
-32 -275 -483 0
-160 277 423 0
309 149 388 0
310 353 -300 0
407 458 -129 0
84 -86 266 0
-259 -182 -487 0
239 227 279 0
-13 415 153 0
149 -39 203 0
-458 28 259 0
97 -483 -11 0
381 430 81 0
-463 244 -106 0
-9 220 139 0
207 280 108 0
309 127 -54 0
