c Exact XOR-to-3CNF encoding; no auxiliary variables
p cnf 512 1368
248 352 151 0
-248 -352 151 0
-248 352 -151 0
248 -352 -151 0
-84 93 42 0
84 -93 42 0
84 93 -42 0
-84 -93 -42 0
473 322 200 0
-473 -322 200 0
-473 322 -200 0
473 -322 -200 0
-120 202 230 0
120 -202 230 0
120 202 -230 0
-120 -202 -230 0
-441 54 178 0
441 -54 178 0
441 54 -178 0
-441 -54 -178 0
-373 155 448 0
373 -155 448 0
373 155 -448 0
-373 -155 -448 0
10 511 324 0
-10 -511 324 0
-10 511 -324 0
10 -511 -324 0
-395 160 242 0
395 -160 242 0
395 160 -242 0
-395 -160 -242 0
-212 31 376 0
212 -31 376 0
212 31 -376 0
-212 -31 -376 0
232 381 361 0
-232 -381 361 0
-232 381 -361 0
232 -381 -361 0
217 264 423 0
-217 -264 423 0
-217 264 -423 0
217 -264 -423 0
382 7 157 0
-382 -7 157 0
-382 7 -157 0
382 -7 -157 0
285 280 496 0
-285 -280 496 0
-285 280 -496 0
285 -280 -496 0
70 495 437 0
-70 -495 437 0
-70 495 -437 0
70 -495 -437 0
-46 487 56 0
46 -487 56 0
46 487 -56 0
-46 -487 -56 0
244 195 390 0
-244 -195 390 0
-244 195 -390 0
244 -195 -390 0
274 331 101 0
-274 -331 101 0
-274 331 -101 0
274 -331 -101 0
-216 235 114 0
216 -235 114 0
216 235 -114 0
-216 -235 -114 0
-286 94 385 0
286 -94 385 0
286 94 -385 0
-286 -94 -385 0
25 100 368 0
-25 -100 368 0
-25 100 -368 0
25 -100 -368 0
-27 151 382 0
27 -151 382 0
27 151 -382 0
-27 -151 -382 0
-381 225 503 0
381 -225 503 0
381 225 -503 0
-381 -225 -503 0
255 8 20 0
-255 -8 20 0
-255 8 -20 0
255 -8 -20 0
-148 481 275 0
148 -481 275 0
148 481 -275 0
-148 -481 -275 0
-89 129 231 0
89 -129 231 0
89 129 -231 0
-89 -129 -231 0
-127 196 173 0
127 -196 173 0
127 196 -173 0
-127 -196 -173 0
-204 417 287 0
204 -417 287 0
204 417 -287 0
-204 -417 -287 0
133 335 147 0
-133 -335 147 0
-133 335 -147 0
133 -335 -147 0
161 220 75 0
-161 -220 75 0
-161 220 -75 0
161 -220 -75 0
250 384 347 0
-250 -384 347 0
-250 384 -347 0
250 -384 -347 0
13 272 144 0
-13 -272 144 0
-13 272 -144 0
13 -272 -144 0
-191 485 298 0
191 -485 298 0
191 485 -298 0
-191 -485 -298 0
139 104 66 0
-139 -104 66 0
-139 104 -66 0
139 -104 -66 0
236 472 395 0
-236 -472 395 0
-236 472 -395 0
236 -472 -395 0
-434 366 329 0
434 -366 329 0
434 366 -329 0
-434 -366 -329 0
501 86 356 0
-501 -86 356 0
-501 86 -356 0
501 -86 -356 0
-174 95 26 0
174 -95 26 0
174 95 -26 0
-174 -95 -26 0
-430 260 90 0
430 -260 90 0
430 260 -90 0
-430 -260 -90 0
-73 59 5 0
73 -59 5 0
73 59 -5 0
-73 -59 -5 0
463 488 319 0
-463 -488 319 0
-463 488 -319 0
463 -488 -319 0
72 40 125 0
-72 -40 125 0
-72 40 -125 0
72 -40 -125 0
23 245 453 0
-23 -245 453 0
-23 245 -453 0
23 -245 -453 0
-160 509 64 0
160 -509 64 0
160 509 -64 0
-160 -509 -64 0
117 96 145 0
-117 -96 145 0
-117 96 -145 0
117 -96 -145 0
-268 345 294 0
268 -345 294 0
268 345 -294 0
-268 -345 -294 0
-127 106 159 0
127 -106 159 0
127 106 -159 0
-127 -106 -159 0
108 295 237 0
-108 -295 237 0
-108 295 -237 0
108 -295 -237 0
-275 82 192 0
275 -82 192 0
275 82 -192 0
-275 -82 -192 0
448 439 484 0
-448 -439 484 0
-448 439 -484 0
448 -439 -484 0
502 34 228 0
-502 -34 228 0
-502 34 -228 0
502 -34 -228 0
418 495 479 0
-418 -495 479 0
-418 495 -479 0
418 -495 -479 0
72 60 371 0
-72 -60 371 0
-72 60 -371 0
72 -60 -371 0
-168 243 32 0
168 -243 32 0
168 243 -32 0
-168 -243 -32 0
75 193 404 0
-75 -193 404 0
-75 193 -404 0
75 -193 -404 0
-320 207 342 0
320 -207 342 0
320 207 -342 0
-320 -207 -342 0
-210 449 493 0
210 -449 493 0
210 449 -493 0
-210 -449 -493 0
107 300 407 0
-107 -300 407 0
-107 300 -407 0
107 -300 -407 0
-9 408 294 0
9 -408 294 0
9 408 -294 0
-9 -408 -294 0
55 369 28 0
-55 -369 28 0
-55 369 -28 0
55 -369 -28 0
-12 135 438 0
12 -135 438 0
12 135 -438 0
-12 -135 -438 0
4 74 179 0
-4 -74 179 0
-4 74 -179 0
4 -74 -179 0
-19 20 338 0
19 -20 338 0
19 20 -338 0
-19 -20 -338 0
-116 121 311 0
116 -121 311 0
116 121 -311 0
-116 -121 -311 0
-258 409 168 0
258 -409 168 0
258 409 -168 0
-258 -409 -168 0
-366 460 459 0
366 -460 459 0
366 460 -459 0
-366 -460 -459 0
-409 17 290 0
409 -17 290 0
409 17 -290 0
-409 -17 -290 0
-302 202 311 0
302 -202 311 0
302 202 -311 0
-302 -202 -311 0
-276 375 282 0
276 -375 282 0
276 375 -282 0
-276 -375 -282 0
-16 83 443 0
16 -83 443 0
16 83 -443 0
-16 -83 -443 0
231 270 99 0
-231 -270 99 0
-231 270 -99 0
231 -270 -99 0
-318 497 153 0
318 -497 153 0
318 497 -153 0
-318 -497 -153 0
29 394 80 0
-29 -394 80 0
-29 394 -80 0
29 -394 -80 0
-271 411 332 0
271 -411 332 0
271 411 -332 0
-271 -411 -332 0
-141 219 101 0
141 -219 101 0
141 219 -101 0
-141 -219 -101 0
-200 406 266 0
200 -406 266 0
200 406 -266 0
-200 -406 -266 0
85 11 83 0
-85 -11 83 0
-85 11 -83 0
85 -11 -83 0
-458 475 325 0
458 -475 325 0
458 475 -325 0
-458 -475 -325 0
266 186 270 0
-266 -186 270 0
-266 186 -270 0
266 -186 -270 0
-346 46 162 0
346 -46 162 0
346 46 -162 0
-346 -46 -162 0
344 464 405 0
-344 -464 405 0
-344 464 -405 0
344 -464 -405 0
-356 327 183 0
356 -327 183 0
356 327 -183 0
-356 -327 -183 0
142 351 68 0
-142 -351 68 0
-142 351 -68 0
142 -351 -68 0
-36 61 150 0
36 -61 150 0
36 61 -150 0
-36 -61 -150 0
-93 184 339 0
93 -184 339 0
93 184 -339 0
-93 -184 -339 0
-321 341 329 0
321 -341 329 0
321 341 -329 0
-321 -341 -329 0
305 251 181 0
-305 -251 181 0
-305 251 -181 0
305 -251 -181 0
-394 1 188 0
394 -1 188 0
394 1 -188 0
-394 -1 -188 0
185 485 447 0
-185 -485 447 0
-185 485 -447 0
185 -485 -447 0
494 446 299 0
-494 -446 299 0
-494 446 -299 0
494 -446 -299 0
-136 352 123 0
136 -352 123 0
136 352 -123 0
-136 -352 -123 0
-53 292 265 0
53 -292 265 0
53 292 -265 0
-53 -292 -265 0
-422 91 504 0
422 -91 504 0
422 91 -504 0
-422 -91 -504 0
-170 179 134 0
170 -179 134 0
170 179 -134 0
-170 -179 -134 0
419 290 413 0
-419 -290 413 0
-419 290 -413 0
419 -290 -413 0
295 53 412 0
-295 -53 412 0
-295 53 -412 0
295 -53 -412 0
492 112 331 0
-492 -112 331 0
-492 112 -331 0
492 -112 -331 0
182 472 38 0
-182 -472 38 0
-182 472 -38 0
182 -472 -38 0
-110 79 152 0
110 -79 152 0
110 79 -152 0
-110 -79 -152 0
-392 177 197 0
392 -177 197 0
392 177 -197 0
-392 -177 -197 0
470 326 510 0
-470 -326 510 0
-470 326 -510 0
470 -326 -510 0
506 387 22 0
-506 -387 22 0
-506 387 -22 0
506 -387 -22 0
372 388 167 0
-372 -388 167 0
-372 388 -167 0
372 -388 -167 0
187 315 198 0
-187 -315 198 0
-187 315 -198 0
187 -315 -198 0
221 288 380 0
-221 -288 380 0
-221 288 -380 0
221 -288 -380 0
-156 307 214 0
156 -307 214 0
156 307 -214 0
-156 -307 -214 0
-156 474 190 0
156 -474 190 0
156 474 -190 0
-156 -474 -190 0
126 498 64 0
-126 -498 64 0
-126 498 -64 0
126 -498 -64 0
-141 208 37 0
141 -208 37 0
141 208 -37 0
-141 -208 -37 0
50 246 115 0
-50 -246 115 0
-50 246 -115 0
50 -246 -115 0
426 254 21 0
-426 -254 21 0
-426 254 -21 0
426 -254 -21 0
22 262 507 0
-22 -262 507 0
-22 262 -507 0
22 -262 -507 0
-341 201 48 0
341 -201 48 0
341 201 -48 0
-341 -201 -48 0
-355 12 194 0
355 -12 194 0
355 12 -194 0
-355 -12 -194 0
454 260 28 0
-454 -260 28 0
-454 260 -28 0
454 -260 -28 0
-404 76 470 0
404 -76 470 0
404 76 -470 0
-404 -76 -470 0
-69 86 29 0
69 -86 29 0
69 86 -29 0
-69 -86 -29 0
-41 310 279 0
41 -310 279 0
41 310 -279 0
-41 -310 -279 0
-427 167 452 0
427 -167 452 0
427 167 -452 0
-427 -167 -452 0
-132 492 44 0
132 -492 44 0
132 492 -44 0
-132 -492 -44 0
444 354 361 0
-444 -354 361 0
-444 354 -361 0
444 -354 -361 0
-45 80 58 0
45 -80 58 0
45 80 -58 0
-45 -80 -58 0
-383 274 218 0
383 -274 218 0
383 274 -218 0
-383 -274 -218 0
302 138 69 0
-302 -138 69 0
-302 138 -69 0
302 -138 -69 0
-88 219 466 0
88 -219 466 0
88 219 -466 0
-88 -219 -466 0
206 135 450 0
-206 -135 450 0
-206 135 -450 0
206 -135 -450 0
315 390 461 0
-315 -390 461 0
-315 390 -461 0
315 -390 -461 0
-433 180 359 0
433 -180 359 0
433 180 -359 0
-433 -180 -359 0
50 195 428 0
-50 -195 428 0
-50 195 -428 0
50 -195 -428 0
217 396 91 0
-217 -396 91 0
-217 396 -91 0
217 -396 -91 0
-169 205 121 0
169 -205 121 0
169 205 -121 0
-169 -205 -121 0
-391 17 308 0
391 -17 308 0
391 17 -308 0
-391 -17 -308 0
350 363 442 0
-350 -363 442 0
-350 363 -442 0
350 -363 -442 0
114 198 484 0
-114 -198 484 0
-114 198 -484 0
114 -198 -484 0
-87 399 9 0
87 -399 9 0
87 399 -9 0
-87 -399 -9 0
436 58 333 0
-436 -58 333 0
-436 58 -333 0
436 -58 -333 0
82 483 328 0
-82 -483 328 0
-82 483 -328 0
82 -483 -328 0
505 468 162 0
-505 -468 162 0
-505 468 -162 0
505 -468 -162 0
-398 373 273 0
398 -373 273 0
398 373 -273 0
-398 -373 -273 0
-158 389 314 0
158 -389 314 0
158 389 -314 0
-158 -389 -314 0
-105 306 149 0
105 -306 149 0
105 306 -149 0
-105 -306 -149 0
-43 468 63 0
43 -468 63 0
43 468 -63 0
-43 -468 -63 0
-499 486 138 0
499 -486 138 0
499 486 -138 0
-499 -486 -138 0
-455 293 62 0
455 -293 62 0
455 293 -62 0
-455 -293 -62 0
-499 444 465 0
499 -444 465 0
499 444 -465 0
-499 -444 -465 0
-143 230 63 0
143 -230 63 0
143 230 -63 0
-143 -230 -63 0
35 57 115 0
-35 -57 115 0
-35 57 -115 0
35 -57 -115 0
-30 417 511 0
30 -417 511 0
30 417 -511 0
-30 -417 -511 0
-446 88 92 0
446 -88 92 0
446 88 -92 0
-446 -88 -92 0
-172 312 429 0
172 -312 429 0
172 312 -429 0
-172 -312 -429 0
-239 123 188 0
239 -123 188 0
239 123 -188 0
-239 -123 -188 0
-278 397 240 0
278 -397 240 0
278 397 -240 0
-278 -397 -240 0
-145 503 299 0
145 -503 299 0
145 503 -299 0
-145 -503 -299 0
-27 278 350 0
27 -278 350 0
27 278 -350 0
-27 -278 -350 0
-204 297 291 0
204 -297 291 0
204 297 -291 0
-204 -297 -291 0
-335 226 181 0
335 -226 181 0
335 226 -181 0
-335 -226 -181 0
378 349 60 0
-378 -349 60 0
-378 349 -60 0
378 -349 -60 0
457 31 496 0
-457 -31 496 0
-457 31 -496 0
457 -31 -496 0
214 102 291 0
-214 -102 291 0
-214 102 -291 0
214 -102 -291 0
-500 129 478 0
500 -129 478 0
500 129 -478 0
-500 -129 -478 0
-455 360 203 0
455 -360 203 0
455 360 -203 0
-455 -360 -203 0
421 118 105 0
-421 -118 105 0
-421 118 -105 0
421 -118 -105 0
281 3 374 0
-281 -3 374 0
-281 3 -374 0
281 -3 -374 0
-65 234 419 0
65 -234 419 0
65 234 -419 0
-65 -234 -419 0
360 478 18 0
-360 -478 18 0
-360 478 -18 0
360 -478 -18 0
213 505 42 0
-213 -505 42 0
-213 505 -42 0
213 -505 -42 0
100 450 303 0
-100 -450 303 0
-100 450 -303 0
100 -450 -303 0
-498 131 288 0
498 -131 288 0
498 131 -288 0
-498 -131 -288 0
110 172 434 0
-110 -172 434 0
-110 172 -434 0
110 -172 -434 0
-508 420 107 0
508 -420 107 0
508 420 -107 0
-508 -420 -107 0
256 248 389 0
-256 -248 389 0
-256 248 -389 0
256 -248 -389 0
33 65 267 0
-33 -65 267 0
-33 65 -267 0
33 -65 -267 0
507 210 285 0
-507 -210 285 0
-507 210 -285 0
507 -210 -285 0
312 491 205 0
-312 -491 205 0
-312 491 -205 0
312 -491 -205 0
-432 452 380 0
432 -452 380 0
432 452 -380 0
-432 -452 -380 0
-490 89 316 0
490 -89 316 0
490 89 -316 0
-490 -89 -316 0
500 458 355 0
-500 -458 355 0
-500 458 -355 0
500 -458 -355 0
51 421 223 0
-51 -421 223 0
-51 421 -223 0
51 -421 -223 0
-77 487 197 0
77 -487 197 0
77 487 -197 0
-77 -487 -197 0
103 351 55 0
-103 -351 55 0
-103 351 -55 0
103 -351 -55 0
252 447 249 0
-252 -447 249 0
-252 447 -249 0
252 -447 -249 0
-372 212 8 0
372 -212 8 0
372 212 -8 0
-372 -212 -8 0
-87 287 133 0
87 -287 133 0
87 287 -133 0
-87 -287 -133 0
97 336 459 0
-97 -336 459 0
-97 336 -459 0
97 -336 -459 0
365 348 339 0
-365 -348 339 0
-365 348 -339 0
365 -348 -339 0
-229 318 71 0
229 -318 71 0
229 318 -71 0
-229 -318 -71 0
333 226 119 0
-333 -226 119 0
-333 226 -119 0
333 -226 -119 0
-2 442 233 0
2 -442 233 0
2 442 -233 0
-2 -442 -233 0
-119 207 342 0
119 -207 342 0
119 207 -342 0
-119 -207 -342 0
362 482 221 0
-362 -482 221 0
-362 482 -221 0
362 -482 -221 0
257 244 232 0
-257 -244 232 0
-257 244 -232 0
257 -244 -232 0
-190 96 475 0
190 -96 475 0
190 96 -475 0
-190 -96 -475 0
94 401 319 0
-94 -401 319 0
-94 401 -319 0
94 -401 -319 0
-461 98 152 0
461 -98 152 0
461 98 -152 0
-461 -98 -152 0
477 54 403 0
-477 -54 403 0
-477 54 -403 0
477 -54 -403 0
-497 347 460 0
497 -347 460 0
497 347 -460 0
-497 -347 -460 0
-359 386 263 0
359 -386 263 0
359 386 -263 0
-359 -386 -263 0
90 81 489 0
-90 -81 489 0
-90 81 -489 0
90 -81 -489 0
391 150 81 0
-391 -150 81 0
-391 150 -81 0
391 -150 -81 0
334 435 224 0
-334 -435 224 0
-334 435 -224 0
334 -435 -224 0
425 52 140 0
-425 -52 140 0
-425 52 -140 0
425 -52 -140 0
-493 268 483 0
493 -268 483 0
493 268 -483 0
-493 -268 -483 0
-379 92 250 0
379 -92 250 0
379 92 -250 0
-379 -92 -250 0
182 245 476 0
-182 -245 476 0
-182 245 -476 0
182 -245 -476 0
130 76 411 0
-130 -76 411 0
-130 76 -411 0
130 -76 -411 0
71 253 243 0
-71 -253 243 0
-71 253 -243 0
71 -253 -243 0
-78 316 374 0
78 -316 374 0
78 316 -374 0
-78 -316 -374 0
-222 159 280 0
222 -159 280 0
222 159 -280 0
-222 -159 -280 0
465 213 309 0
-465 -213 309 0
-465 213 -309 0
465 -213 -309 0
116 74 420 0
-116 -74 420 0
-116 74 -420 0
116 -74 -420 0
357 3 501 0
-357 -3 501 0
-357 3 -501 0
357 -3 -501 0
-176 429 301 0
176 -429 301 0
176 429 -301 0
-176 -429 -301 0
-18 209 441 0
18 -209 441 0
18 209 -441 0
-18 -209 -441 0
-44 201 24 0
44 -201 24 0
44 201 -24 0
-44 -201 -24 0
414 271 377 0
-414 -271 377 0
-414 271 -377 0
414 -271 -377 0
239 375 163 0
-239 -375 163 0
-239 375 -163 0
239 -375 -163 0
-180 242 418 0
180 -242 418 0
180 242 -418 0
-180 -242 -418 0
264 343 137 0
-264 -343 137 0
-264 343 -137 0
264 -343 -137 0
70 149 431 0
-70 -149 431 0
-70 149 -431 0
70 -149 -431 0
57 456 320 0
-57 -456 320 0
-57 456 -320 0
57 -456 -320 0
463 104 175 0
-463 -104 175 0
-463 104 -175 0
463 -104 -175 0
-117 449 451 0
117 -449 451 0
117 449 -451 0
-117 -449 -451 0
-51 445 37 0
51 -445 37 0
51 445 -37 0
-51 -445 -37 0
109 328 289 0
-109 -328 289 0
-109 328 -289 0
109 -328 -289 0
413 370 38 0
-413 -370 38 0
-413 370 -38 0
413 -370 -38 0
286 146 393 0
-286 -146 393 0
-286 146 -393 0
286 -146 -393 0
-169 237 139 0
169 -237 139 0
169 237 -139 0
-169 -237 -139 0
-49 365 122 0
49 -365 122 0
49 365 -122 0
-49 -365 -122 0
392 330 284 0
-392 -330 284 0
-392 330 -284 0
392 -330 -284 0
-482 39 247 0
482 -39 247 0
482 39 -247 0
-482 -39 -247 0
321 408 509 0
-321 -408 509 0
-321 408 -509 0
321 -408 -509 0
-183 146 175 0
183 -146 175 0
183 146 -175 0
-183 -146 -175 0
-35 400 229 0
35 -400 229 0
35 400 -229 0
-35 -400 -229 0
-163 317 34 0
163 -317 34 0
163 317 -34 0
-163 -317 -34 0
363 438 164 0
-363 -438 164 0
-363 438 -164 0
363 -438 -164 0
-56 85 383 0
56 -85 383 0
56 85 -383 0
-56 -85 -383 0
-11 247 14 0
11 -247 14 0
11 247 -14 0
-11 -247 -14 0
-6 440 344 0
6 -440 344 0
6 440 -344 0
-6 -440 -344 0
-416 40 196 0
416 -40 196 0
416 40 -196 0
-416 -40 -196 0
466 155 410 0
-466 -155 410 0
-466 155 -410 0
466 -155 -410 0
73 257 7 0
-73 -257 7 0
-73 257 -7 0
73 -257 -7 0
-23 324 189 0
23 -324 189 0
23 324 -189 0
-23 -324 -189 0
147 95 508 0
-147 -95 508 0
-147 95 -508 0
147 -95 -508 0
-218 97 414 0
218 -97 414 0
218 97 -414 0
-218 -97 -414 0
240 43 170 0
-240 -43 170 0
-240 43 -170 0
240 -43 -170 0
462 215 49 0
-462 -215 49 0
-462 215 -49 0
462 -215 -49 0
-424 84 203 0
424 -84 203 0
424 84 -203 0
-424 -84 -203 0
-338 99 426 0
338 -99 426 0
338 99 -426 0
-338 -99 -426 0
-225 398 379 0
225 -398 379 0
225 398 -379 0
-225 -398 -379 0
-325 284 407 0
325 -284 407 0
325 284 -407 0
-325 -284 -407 0
326 296 272 0
-326 -296 272 0
-326 296 -272 0
326 -296 -272 0
-388 233 282 0
388 -233 282 0
388 233 -282 0
-388 -233 -282 0
211 512 357 0
-211 -512 357 0
-211 512 -357 0
211 -512 -357 0
491 308 184 0
-491 -308 184 0
-491 308 -184 0
491 -308 -184 0
-166 157 173 0
166 -157 173 0
166 157 -173 0
-166 -157 -173 0
-304 456 462 0
304 -456 462 0
304 456 -462 0
-304 -456 -462 0
-111 403 68 0
111 -403 68 0
111 403 -68 0
-111 -403 -68 0
400 154 6 0
-400 -154 6 0
-400 154 -6 0
400 -154 -6 0
467 1 25 0
-467 -1 25 0
-467 1 -25 0
467 -1 -25 0
305 235 296 0
-305 -235 296 0
-305 235 -296 0
305 -235 -296 0
-306 397 24 0
306 -397 24 0
306 397 -24 0
-306 -397 -24 0
425 140 345 0
-425 -140 345 0
-425 140 -345 0
425 -140 -345 0
47 469 269 0
-47 -469 269 0
-47 469 -269 0
47 -469 -269 0
269 126 228 0
-269 -126 228 0
-269 126 -228 0
269 -126 -228 0
222 433 454 0
-222 -433 454 0
-222 433 -454 0
222 -433 -454 0
-273 208 401 0
273 -208 401 0
273 208 -401 0
-273 -208 -401 0
-323 349 120 0
323 -349 120 0
323 349 -120 0
-323 -349 -120 0
-113 471 476 0
113 -471 476 0
113 471 -476 0
-113 -471 -476 0
164 30 300 0
-164 -30 300 0
-164 30 -300 0
164 -30 -300 0
-410 246 79 0
410 -246 79 0
410 246 -79 0
-410 -246 -79 0
154 481 332 0
-154 -481 332 0
-154 481 -332 0
154 -481 -332 0
-464 512 224 0
464 -512 224 0
464 512 -224 0
-464 -512 -224 0
-346 41 143 0
346 -41 143 0
346 41 -143 0
-346 -41 -143 0
-32 124 479 0
32 -124 479 0
32 124 -479 0
-32 -124 -479 0
353 194 301 0
-353 -194 301 0
-353 194 -301 0
353 -194 -301 0
-457 106 337 0
457 -106 337 0
457 106 -337 0
-457 -106 -337 0
234 376 142 0
-234 -376 142 0
-234 376 -142 0
234 -376 -142 0
-206 314 259 0
206 -314 259 0
206 314 -259 0
-206 -314 -259 0
317 386 137 0
-317 -386 137 0
-317 386 -137 0
317 -386 -137 0
62 469 279 0
-62 -469 279 0
-62 469 -279 0
62 -469 -279 0
489 322 111 0
-489 -322 111 0
-489 322 -111 0
489 -322 -111 0
304 161 15 0
-304 -161 15 0
-304 161 -15 0
304 -161 -15 0
-77 131 165 0
77 -131 165 0
77 131 -165 0
-77 -131 -165 0
67 216 340 0
-67 -216 340 0
-67 216 -340 0
67 -216 -340 0
-238 416 165 0
238 -416 165 0
238 416 -165 0
-238 -416 -165 0
26 132 256 0
-26 -132 256 0
-26 132 -256 0
26 -132 -256 0
103 211 327 0
-103 -211 327 0
-103 211 -327 0
103 -211 -327 0
330 98 10 0
-330 -98 10 0
-330 98 -10 0
330 -98 -10 0
-186 66 241 0
186 -66 241 0
186 66 -241 0
-186 -66 -241 0
-124 171 440 0
124 -171 440 0
124 171 -440 0
-124 -171 -440 0
-369 283 171 0
369 -283 171 0
369 283 -171 0
-369 -283 -171 0
-281 130 422 0
281 -130 422 0
281 130 -422 0
-281 -130 -422 0
251 396 502 0
-251 -396 502 0
-251 396 -502 0
251 -396 -502 0
263 377 402 0
-263 -377 402 0
-263 377 -402 0
263 -377 -402 0
-399 276 14 0
399 -276 14 0
399 276 -14 0
-399 -276 -14 0
504 227 432 0
-504 -227 432 0
-504 227 -432 0
504 -227 -432 0
-435 193 15 0
435 -193 15 0
435 193 -15 0
-435 -193 -15 0
367 265 486 0
-367 -265 486 0
-367 265 -486 0
367 -265 -486 0
480 61 199 0
-480 -61 199 0
-480 61 -199 0
480 -61 -199 0
-189 283 297 0
189 -283 297 0
189 283 -297 0
-189 -283 -297 0
122 215 393 0
-122 -215 393 0
-122 215 -393 0
122 -215 -393 0
490 510 192 0
-490 -510 192 0
-490 510 -192 0
490 -510 -192 0
-47 144 36 0
47 -144 36 0
47 144 -36 0
-47 -144 -36 0
118 384 5 0
-118 -384 5 0
-118 384 -5 0
118 -384 -5 0
415 368 108 0
-415 -368 108 0
-415 368 -108 0
415 -368 -108 0
78 45 453 0
-78 -45 453 0
-78 45 -453 0
78 -45 -453 0
-436 59 259 0
436 -59 259 0
436 59 -259 0
-436 -59 -259 0
-267 148 370 0
267 -148 370 0
267 148 -370 0
-267 -148 -370 0
-177 506 406 0
177 -506 406 0
177 506 -406 0
-177 -506 -406 0
33 112 364 0
-33 -112 364 0
-33 112 -364 0
33 -112 -364 0
255 353 220 0
-255 -353 220 0
-255 353 -220 0
255 -353 -220 0
209 343 2 0
-209 -343 2 0
-209 343 -2 0
209 -343 -2 0
358 261 128 0
-358 -261 128 0
-358 261 -128 0
358 -261 -128 0
-431 387 254 0
431 -387 254 0
431 387 -254 0
-431 -387 -254 0
-166 298 378 0
166 -298 378 0
166 298 -378 0
-166 -298 -378 0
423 362 474 0
-423 -362 474 0
-423 362 -474 0
423 -362 -474 0
67 289 136 0
-67 -289 136 0
-67 289 -136 0
67 -289 -136 0
307 412 128 0
-307 -412 128 0
-307 412 -128 0
307 -412 -128 0
-187 227 367 0
187 -227 367 0
187 227 -367 0
-187 -227 -367 0
-439 191 236 0
439 -191 236 0
439 191 -236 0
-439 -191 -236 0
-424 102 48 0
424 -102 48 0
424 102 -48 0
-424 -102 -48 0
336 313 176 0
-336 -313 176 0
-336 313 -176 0
336 -313 -176 0
354 63 158 0
-354 -63 158 0
-354 63 -158 0
354 -63 -158 0
-174 4 402 0
174 -4 402 0
174 4 -402 0
-174 -4 -402 0
39 348 155 0
-39 -348 155 0
-39 348 -155 0
39 -348 -155 0
337 473 292 0
-337 -473 292 0
-337 473 -292 0
337 -473 -292 0
178 13 293 0
-178 -13 293 0
-178 13 -293 0
178 -13 -293 0
323 261 52 0
-323 -261 52 0
-323 261 -52 0
323 -261 -52 0
-199 185 385 0
199 -185 385 0
199 185 -385 0
-199 -185 -385 0
-153 125 430 0
153 -125 430 0
153 125 -430 0
-153 -125 -430 0
-480 477 277 0
480 -477 277 0
480 477 -277 0
-480 -477 -277 0
443 340 249 0
-443 -340 249 0
-443 340 -249 0
443 -340 -249 0
-467 258 415 0
467 -258 415 0
467 258 -415 0
-467 -258 -415 0
488 262 310 0
-488 -262 310 0
-488 262 -310 0
488 -262 -310 0
-241 405 309 0
241 -405 309 0
241 405 -309 0
-241 -405 -309 0
445 253 223 0
-445 -253 223 0
-445 253 -223 0
445 -253 -223 0
334 113 134 0
-334 -113 134 0
-334 113 -134 0
334 -113 -134 0
-494 428 277 0
494 -428 277 0
494 428 -277 0
-494 -428 -277 0
-109 252 371 0
109 -252 371 0
109 252 -371 0
-109 -252 -371 0
-16 451 437 0
16 -451 437 0
16 451 -437 0
-16 -451 -437 0
-303 21 19 0
303 -21 19 0
303 21 -19 0
-303 -21 -19 0
-364 427 471 0
364 -427 471 0
364 427 -471 0
-364 -427 -471 0
358 313 238 0
-358 -313 238 0
-358 313 -238 0
358 -313 -238 0
