p cnf 14 60
1 -9 -10 0
2 4 11 0
-8 -9 -11 0
14 -11 2 0
10 3 -9 0
-13 -2 -1 0
5 4 -6 0
-9 10 14 0
-3 9 7 0
-4 -11 -12 0
-6 -11 -5 0
3 -9 -7 0
14 -3 13 0
7 11 -9 0
-3 5 -6 0
6 -12 11 0
1 7 9 0
11 2 -7 0
4 5 1 0
12 10 14 0
-12 -11 13 0
4 -14 5 0
6 5 -13 0
11 9 8 0
-7 -8 -1 0
7 13 -14 0
7 -4 10 0
-6 14 -9 0
1 12 10 0
-4 -7 2 0
9 8 11 0
5 -4 -7 0
13 -3 6 0
14 11 8 0
-10 -2 14 0
-7 13 2 0
5 -12 14 0
13 -5 4 0
11 12 4 0
7 8 14 0
7 3 -8 0
4 -1 8 0
2 -12 14 0
13 7 -10 0
-9 4 -3 0
3 -10 -8 0
-14 12 -6 0
7 -5 -8 0
8 -2 4 0
14 -7 3 0
-3 7 -12 0
-13 5 9 0
2 4 -1 0
6 12 11 0
-3 -8 10 0
-2 1 11 0
2 12 10 0
9 13 2 0
-10 -3 7 0
-13 -8 7 0
