p cnf 14 60
-8 -14 6 0
-8 11 7 0
-12 -7 10 0
-8 2 13 0
-4 -7 -8 0
14 2 4 0
3 -2 -9 0
4 14 8 0
-3 -4 10 0
-7 -5 12 0
4 -9 2 0
-8 2 -9 0
-2 1 4 0
14 13 4 0
-11 -5 2 0
13 10 9 0
-13 3 9 0
-9 -12 -11 0
10 6 -3 0
-1 -13 5 0
11 -10 -1 0
7 6 10 0
-5 4 11 0
-5 -3 -12 0
13 3 10 0
3 1 -14 0
-10 3 7 0
12 11 -13 0
9 11 -6 0
-2 1 -9 0
-12 -8 -9 0
8 -4 11 0
11 14 -7 0
14 -12 6 0
13 -4 1 0
1 11 13 0
8 9 -14 0
11 8 -5 0
-7 -12 -1 0
8 -3 2 0
-9 -14 4 0
2 -13 1 0
-11 -4 7 0
10 -2 1 0
12 -8 6 0
-1 -8 5 0
4 -9 -5 0
9 -12 -4 0
1 -12 -14 0
-13 2 -1 0
7 -12 2 0
1 -11 -9 0
-2 9 4 0
11 -1 -13 0
4 12 -14 0
11 -4 -12 0
2 11 4 0
-11 12 -13 0
-8 -9 -5 0
14 -10 4 0
