p cnf 32 138
-32 -13 2 0
16 -20 -22 0
26 -15 -3 0
-12 20 -13 0
-15 -19 5 0
12 -17 10 0
-21 24 -23 0
30 -32 26 0
27 5 -9 0
20 4 -30 0
-2 -11 -21 0
24 17 3 0
24 -7 -3 0
-6 22 32 0
-20 -32 -5 0
6 -23 3 0
2 10 5 0
18 11 -1 0
-21 -16 -28 0
19 4 13 0
-7 -28 -24 0
26 -12 15 0
-31 -9 -16 0
27 24 -13 0
18 26 8 0
15 -30 5 0
-9 17 -22 0
18 -19 -20 0
3 21 14 0
21 3 27 0
18 -15 -31 0
-31 22 -14 0
-7 -11 -21 0
-1 7 -21 0
32 -12 -25 0
-19 -23 -21 0
32 23 -11 0
-17 -31 -19 0
-4 16 -22 0
4 -20 -30 0
2 -15 -7 0
-21 3 10 0
8 -7 -12 0
-30 -1 29 0
24 -8 -30 0
-15 -31 -12 0
26 30 10 0
-9 -24 22 0
-18 9 8 0
4 -16 -29 0
29 17 32 0
-14 10 -17 0
-29 -17 -1 0
-17 -21 25 0
11 -29 20 0
22 14 -11 0
-4 -22 31 0
9 15 -2 0
-7 -10 -23 0
17 -12 -8 0
-14 -17 4 0
22 12 -8 0
20 -31 24 0
-31 9 5 0
-6 27 -26 0
30 1 -16 0
17 -23 24 0
-17 -14 19 0
26 -7 -28 0
-4 -30 13 0
15 29 -18 0
27 -28 6 0
-2 10 23 0
27 -32 -21 0
17 23 -9 0
-25 13 -19 0
-8 31 4 0
10 -32 -12 0
-28 10 7 0
15 -25 -23 0
22 18 11 0
22 2 -29 0
11 -17 25 0
16 27 -17 0
11 10 -29 0
-19 10 -29 0
3 24 -17 0
22 1 19 0
-11 -26 -13 0
-8 -15 5 0
31 12 17 0
-20 3 24 0
-13 15 22 0
8 -11 22 0
15 21 -7 0
-28 -30 16 0
27 29 -2 0
21 24 7 0
-15 -17 -24 0
19 -8 3 0
-28 -23 -25 0
-11 -9 24 0
-7 -21 -16 0
-4 31 -29 0
-4 27 -14 0
20 -32 -1 0
-22 2 -28 0
14 8 -19 0
-8 -10 18 0
-17 13 -29 0
-26 -1 -6 0
-20 10 -21 0
-25 6 -20 0
11 -9 -5 0
-30 26 1 0
13 -5 32 0
-26 -29 7 0
26 -17 -31 0
-3 12 -29 0
-20 -24 -17 0
-20 -27 29 0
17 -3 -7 0
-32 -3 -29 0
14 -3 9 0
13 -22 23 0
3 1 24 0
-32 -21 -29 0
23 16 -29 0
-14 2 8 0
5 -11 28 0
4 18 -32 0
12 -14 28 0
21 -29 30 0
4 7 15 0
-3 -5 -15 0
24 -9 1 0
-13 -19 -29 0
-15 -29 2 0
