p cnf 20 56
2 15 14 0
2 -15 -14 0
-2 15 -14 0
-2 -15 14 0
9 4 3 0
9 -4 -3 0
-9 4 -3 0
-9 -4 3 0
11 8 -17 0
11 -8 17 0
-11 8 17 0
-11 -8 -17 0
1 9 15 0
1 -9 -15 0
-1 9 -15 0
-1 -9 15 0
12 14 17 0
12 -14 -17 0
-12 14 -17 0
-12 -14 17 0
10 18 2 0
10 -18 -2 0
-10 18 -2 0
-10 -18 2 0
6 16 -11 0
6 -16 11 0
-6 16 11 0
-6 -16 -11 0
19 1 7 0
19 -1 -7 0
-19 1 -7 0
-19 -1 7 0
6 7 -13 0
6 -7 13 0
-6 7 13 0
-6 -7 -13 0
20 2 -10 0
20 -2 10 0
-20 2 10 0
-20 -2 -10 0
19 4 -5 0
19 -4 5 0
-19 4 5 0
-19 -4 -5 0
8 6 -5 0
8 -6 5 0
-8 6 5 0
-8 -6 -5 0
20 3 -16 0
20 -3 16 0
-20 3 16 0
-20 -3 -16 0
12 18 13 0
12 -18 -13 0
-12 18 -13 0
-12 -18 13 0
