p cnf 32 88
14 18 -23 0
14 -18 23 0
-14 18 23 0
-14 -18 -23 0
18 12 21 0
18 -12 -21 0
-18 12 -21 0
-18 -12 21 0
16 13 -2 0
16 -13 2 0
-16 13 2 0
-16 -13 -2 0
13 25 32 0
13 -25 -32 0
-13 25 -32 0
-13 -25 32 0
31 29 -24 0
31 -29 24 0
-31 29 24 0
-31 -29 -24 0
22 20 -3 0
22 -20 3 0
-22 20 3 0
-22 -20 -3 0
23 19 -10 0
23 -19 10 0
-23 19 10 0
-23 -19 -10 0
9 28 -8 0
9 -28 8 0
-9 28 8 0
-9 -28 -8 0
4 9 -7 0
4 -9 7 0
-4 9 7 0
-4 -9 -7 0
27 7 29 0
27 -7 -29 0
-27 7 -29 0
-27 -7 29 0
20 32 30 0
20 -32 -30 0
-20 32 -30 0
-20 -32 30 0
15 5 3 0
15 -5 -3 0
-15 5 -3 0
-15 -5 3 0
24 8 10 0
24 -8 -10 0
-24 8 -10 0
-24 -8 10 0
28 31 -17 0
28 -31 17 0
-28 31 17 0
-28 -31 -17 0
6 5 27 0
6 -5 -27 0
-6 5 -27 0
-6 -5 27 0
2 1 -14 0
2 -1 14 0
-2 1 14 0
-2 -1 -14 0
11 6 17 0
11 -6 -17 0
-11 6 -17 0
-11 -6 17 0
1 21 -30 0
1 -21 30 0
-1 21 30 0
-1 -21 -30 0
15 26 8 0
15 -26 -8 0
-15 26 -8 0
-15 -26 8 0
22 6 19 0
22 -6 -19 0
-22 6 -19 0
-22 -6 19 0
26 12 -16 0
26 -12 16 0
-26 12 16 0
-26 -12 -16 0
4 11 -25 0
4 -11 25 0
-4 11 25 0
-4 -11 -25 0
