p cnf 14 60
-4 14 13 0
-9 -14 -13 0
14 10 -13 0
8 -7 2 0
-4 9 -12 0
7 14 -1 0
9 6 3 0
-4 -10 1 0
-11 6 5 0
-6 -4 11 0
-13 -7 -12 0
6 2 12 0
4 -13 14 0
-7 3 -12 0
-1 -13 -7 0
-12 -8 4 0
-3 -9 14 0
9 -4 -5 0
-14 12 -4 0
11 3 -12 0
-11 -12 6 0
5 -7 6 0
1 11 -3 0
10 -12 -5 0
-3 10 -8 0
3 -5 9 0
-4 -1 7 0
-13 14 10 0
8 12 5 0
10 6 5 0
-3 11 -4 0
2 -7 -11 0
-7 -13 14 0
-1 -6 -5 0
-11 -14 9 0
5 -6 12 0
-3 -2 -14 0
13 -14 -11 0
-9 5 -11 0
-11 -12 -2 0
-13 -3 -9 0
-12 -14 -10 0
-1 -12 6 0
-14 -5 -4 0
9 11 -7 0
14 -11 -1 0
2 7 -9 0
-8 6 9 0
2 10 11 0
13 -9 -1 0
10 -14 -5 0
-3 11 12 0
8 -1 -10 0
5 -14 3 0
-9 11 -14 0
-5 6 -1 0
3 13 -2 0
-11 -2 1 0
13 10 -1 0
-6 8 10 0
