p cnf 32 138
-16 -27 29 0
-8 -17 32 0
28 25 19 0
-19 -21 -14 0
12 31 -28 0
32 -20 -11 0
-19 3 -32 0
-17 12 -27 0
-2 22 -27 0
7 -17 -30 0
-23 4 10 0
26 -21 -9 0
4 -24 -31 0
4 -9 18 0
-8 2 -22 0
22 -17 13 0
-31 30 3 0
-20 9 -1 0
21 32 31 0
-28 18 22 0
11 -3 28 0
30 7 27 0
-16 -12 -14 0
4 19 14 0
-4 28 22 0
-32 -15 17 0
-7 4 18 0
-15 1 -7 0
-3 -22 4 0
-23 4 -8 0
-16 -11 28 0
4 6 -2 0
17 -25 18 0
-11 16 -12 0
22 -4 -21 0
17 -11 10 0
-5 30 24 0
2 5 14 0
11 24 1 0
-23 -26 -24 0
-11 15 -10 0
-18 -9 -28 0
2 15 20 0
6 10 -7 0
-24 9 -23 0
-13 30 3 0
-13 16 -4 0
27 9 -3 0
-23 16 17 0
-9 -12 -26 0
-28 -11 -17 0
-29 -21 -32 0
-32 26 30 0
24 -30 -5 0
-18 14 6 0
-15 18 26 0
-4 -18 -20 0
21 18 15 0
4 -16 -23 0
-10 -26 2 0
-10 15 -32 0
29 31 30 0
-20 -18 -15 0
30 4 -1 0
-16 4 -12 0
10 -11 3 0
4 -25 19 0
32 -20 -30 0
-24 -30 26 0
-22 -24 -6 0
15 -9 -19 0
21 -1 10 0
-30 2 -15 0
10 5 28 0
18 -2 -6 0
5 20 -4 0
-26 -3 -24 0
13 1 16 0
-27 26 -15 0
-3 -24 31 0
16 -13 -22 0
14 -5 -27 0
-4 9 -12 0
30 -27 -29 0
-28 3 -22 0
30 -23 7 0
-17 -25 -1 0
-28 -12 20 0
29 27 -10 0
30 23 -5 0
-7 -9 -32 0
-25 -16 31 0
-2 -31 -11 0
-14 9 -10 0
-1 -6 14 0
12 -28 30 0
-23 -13 12 0
25 10 -30 0
9 29 -17 0
-29 -18 22 0
-8 13 -9 0
-2 -18 23 0
23 6 24 0
32 -17 -11 0
28 8 -2 0
-21 19 -28 0
2 29 9 0
13 -31 4 0
23 -32 -8 0
-18 -17 20 0
26 -6 -24 0
9 -18 32 0
-18 -10 -29 0
21 18 -4 0
-31 -26 22 0
-16 -27 -31 0
-2 23 -16 0
-18 -9 -4 0
-3 -28 -4 0
17 -29 -31 0
23 -25 11 0
-24 32 21 0
23 -9 -2 0
-18 -2 -13 0
-31 10 27 0
6 30 -31 0
-22 8 7 0
-25 13 -4 0
-6 -28 23 0
-9 -27 5 0
-9 -4 -26 0
11 -5 22 0
26 -10 -14 0
-19 8 -31 0
24 -12 -21 0
-29 -7 -20 0
16 -25 -31 0
23 20 -12 0
