p cnf 32 88
3 4 14 0
3 -4 -14 0
-3 4 -14 0
-3 -4 14 0
11 26 -23 0
11 -26 23 0
-11 26 23 0
-11 -26 -23 0
32 24 -6 0
32 -24 6 0
-32 24 6 0
-32 -24 -6 0
4 3 1 0
4 -3 -1 0
-4 3 -1 0
-4 -3 1 0
13 16 27 0
13 -16 -27 0
-13 16 -27 0
-13 -16 27 0
23 31 22 0
23 -31 -22 0
-23 31 -22 0
-23 -31 22 0
9 12 -21 0
9 -12 21 0
-9 12 21 0
-9 -12 -21 0
6 24 -18 0
6 -24 18 0
-6 24 18 0
-6 -24 -18 0
30 20 25 0
30 -20 -25 0
-30 20 -25 0
-30 -20 25 0
15 19 27 0
15 -19 -27 0
-15 19 -27 0
-15 -19 27 0
29 14 1 0
29 -14 -1 0
-29 14 -1 0
-29 -14 1 0
7 13 6 0
7 -13 -6 0
-7 13 -6 0
-7 -13 6 0
15 20 26 0
15 -20 -26 0
-15 20 -26 0
-15 -20 26 0
16 17 -2 0
16 -17 2 0
-16 17 2 0
-16 -17 -2 0
30 8 -32 0
30 -8 32 0
-30 8 32 0
-30 -8 -32 0
11 10 12 0
11 -10 -12 0
-11 10 -12 0
-11 -10 12 0
31 8 -10 0
31 -8 10 0
-31 8 10 0
-31 -8 -10 0
21 22 -25 0
21 -22 25 0
-21 22 25 0
-21 -22 -25 0
19 28 17 0
19 -28 -17 0
-19 28 -17 0
-19 -28 17 0
9 5 -18 0
9 -5 18 0
-9 5 18 0
-9 -5 -18 0
2 28 5 0
2 -28 -5 0
-2 28 -5 0
-2 -28 5 0
7 29 25 0
7 -29 -25 0
-7 29 -25 0
-7 -29 25 0
