p cnf 26 72
18 4 13 0
18 -4 -13 0
-18 4 -13 0
-18 -4 13 0
7 21 -9 0
7 -21 9 0
-7 21 9 0
-7 -21 -9 0
19 9 -17 0
19 -9 17 0
-19 9 17 0
-19 -9 -17 0
15 8 -25 0
15 -8 25 0
-15 8 25 0
-15 -8 -25 0
1 8 -12 0
1 -8 12 0
-1 8 12 0
-1 -8 -12 0
11 26 13 0
11 -26 -13 0
-11 26 -13 0
-11 -26 13 0
19 6 -5 0
19 -6 5 0
-19 6 5 0
-19 -6 -5 0
22 16 12 0
22 -16 -12 0
-22 16 -12 0
-22 -16 12 0
23 24 -20 0
23 -24 20 0
-23 24 20 0
-23 -24 -20 0
24 3 26 0
24 -3 -26 0
-24 3 -26 0
-24 -3 26 0
17 7 -6 0
17 -7 6 0
-17 7 6 0
-17 -7 -6 0
22 10 15 0
22 -10 -15 0
-22 10 -15 0
-22 -10 15 0
9 5 -2 0
9 -5 2 0
-9 5 2 0
-9 -5 -2 0
1 25 14 0
1 -25 -14 0
-1 25 -14 0
-1 -25 14 0
16 11 4 0
16 -11 -4 0
-16 11 -4 0
-16 -11 4 0
2 18 -10 0
2 -18 10 0
-2 18 10 0
-2 -18 -10 0
3 21 -14 0
3 -21 14 0
-3 21 14 0
-3 -21 -14 0
23 20 -25 0
23 -20 25 0
-23 20 25 0
-23 -20 -25 0
