p cnf 20 56
18 10 5 0
18 -10 -5 0
-18 10 -5 0
-18 -10 5 0
17 6 -13 0
17 -6 13 0
-17 6 13 0
-17 -6 -13 0
14 1 7 0
14 -1 -7 0
-14 1 -7 0
-14 -1 7 0
16 9 19 0
16 -9 -19 0
-16 9 -19 0
-16 -9 19 0
20 17 -10 0
20 -17 10 0
-20 17 10 0
-20 -17 -10 0
11 3 12 0
11 -3 -12 0
-11 3 -12 0
-11 -3 12 0
6 1 -20 0
6 -1 20 0
-6 1 20 0
-6 -1 -20 0
4 14 13 0
4 -14 -13 0
-4 14 -13 0
-4 -14 13 0
7 13 -8 0
7 -13 8 0
-7 13 8 0
-7 -13 -8 0
11 15 -9 0
11 -15 9 0
-11 15 9 0
-11 -15 -9 0
12 15 -2 0
12 -15 2 0
-12 15 2 0
-12 -15 -2 0
16 3 -15 0
16 -3 15 0
-16 3 15 0
-16 -3 -15 0
5 18 4 0
5 -18 -4 0
-5 18 -4 0
-5 -18 4 0
2 8 -19 0
2 -8 19 0
-2 8 19 0
-2 -8 -19 0
