p cnf 20 86
3 16 -7 0
7 -14 18 0
14 -15 -7 0
-10 3 13 0
-17 8 -18 0
18 -4 20 0
6 -12 17 0
-11 -2 5 0
4 11 3 0
1 -4 3 0
10 19 15 0
4 -9 -7 0
15 -8 -1 0
12 -3 8 0
2 -19 -10 0
-4 13 12 0
-10 -5 14 0
-5 -17 -1 0
-20 -2 12 0
-16 -11 4 0
19 2 1 0
-17 5 -7 0
1 15 -3 0
-8 18 10 0
-18 -9 1 0
11 15 13 0
-19 -10 4 0
7 -12 -6 0
20 11 -1 0
20 -17 -13 0
-20 9 18 0
4 -12 -16 0
-18 17 -14 0
-17 -16 -2 0
1 -4 -16 0
17 -16 -4 0
-10 15 -4 0
-14 -3 -13 0
19 -13 5 0
2 18 5 0
-13 6 -16 0
-5 2 14 0
18 1 -16 0
-16 8 -15 0
17 7 -11 0
20 18 -6 0
20 -5 -4 0
-7 -12 -8 0
-20 -9 7 0
12 -15 2 0
-15 17 -10 0
9 -14 -4 0
2 -4 5 0
-10 -1 20 0
3 18 15 0
9 5 -7 0
-1 6 -20 0
-7 13 -11 0
-15 -20 -11 0
-13 -14 3 0
19 -4 -10 0
5 14 -2 0
19 7 -9 0
-10 14 11 0
-20 -5 12 0
-9 -10 4 0
-11 7 2 0
8 18 7 0
-1 2 -8 0
15 -10 16 0
10 15 -7 0
-10 8 15 0
14 20 1 0
19 9 -2 0
-19 14 -15 0
-8 -19 10 0
12 9 -8 0
2 -12 -17 0
-3 7 -16 0
15 9 12 0
9 -1 12 0
13 -20 -17 0
-1 19 -17 0
7 -9 -18 0
15 -2 1 0
-2 -1 14 0
