c Uniform planted family; verification certificate stored separately
p cnf 32 138
14 -32 -21 0
16 -18 -27 0
-9 1 18 0
-11 -2 -32 0
26 22 -13 0
28 -17 -8 0
10 -25 -28 0
-30 -16 1 0
6 -2 14 0
18 28 -20 0
7 -27 8 0
1 -15 25 0
-1 -31 12 0
-21 30 -20 0
-32 12 9 0
-9 4 19 0
3 14 18 0
-11 9 -16 0
32 -10 21 0
17 -11 31 0
-8 -10 -18 0
24 20 16 0
-5 12 23 0
-9 -20 -4 0
-1 19 20 0
7 6 -4 0
30 18 7 0
-8 32 14 0
27 4 -6 0
-8 -22 -26 0
29 -8 -21 0
1 -14 -8 0
-10 19 15 0
15 29 -21 0
2 30 -4 0
6 -21 7 0
6 -19 -17 0
10 -4 -1 0
16 -15 4 0
-13 9 16 0
-15 20 -23 0
-22 -13 -16 0
17 -3 -16 0
-12 23 -14 0
-1 -30 3 0
21 20 13 0
-19 -22 12 0
18 -21 -30 0
22 -28 -32 0
-22 26 -12 0
28 19 -29 0
-27 -12 -9 0
2 -5 27 0
4 -13 -1 0
19 -30 32 0
-8 27 -7 0
-31 2 13 0
8 2 -27 0
3 -27 -16 0
18 -30 29 0
9 10 6 0
-5 -22 -8 0
1 20 18 0
23 27 -1 0
27 15 8 0
4 31 -15 0
5 27 24 0
-2 30 3 0
25 -29 16 0
3 18 30 0
3 -31 2 0
7 26 -19 0
-29 11 4 0
-3 -11 16 0
-24 6 14 0
32 -2 -22 0
6 -21 25 0
-22 2 18 0
19 16 -32 0
-24 26 25 0
20 14 -11 0
22 -29 2 0
1 11 -24 0
6 -16 31 0
-11 7 -2 0
-18 -31 23 0
-9 -22 -18 0
27 -21 32 0
-2 18 22 0
20 18 -25 0
12 -32 18 0
3 24 5 0
-22 4 -31 0
2 -13 23 0
26 2 7 0
23 -14 30 0
-29 30 -10 0
4 -9 -14 0
-27 -15 -20 0
-21 -8 -5 0
-28 32 -15 0
24 10 -15 0
24 22 -2 0
-18 28 -31 0
-29 3 -32 0
22 -13 7 0
22 -10 -26 0
25 -22 -32 0
11 29 -9 0
26 8 -1 0
13 -12 15 0
-2 -15 -23 0
-30 16 -29 0
12 4 23 0
7 16 -5 0
19 20 31 0
24 -23 22 0
19 -26 -23 0
14 -17 2 0
-11 -3 32 0
15 24 -17 0
15 24 20 0
-23 30 -4 0
9 -14 18 0
-5 -2 -32 0
25 -10 -1 0
-10 2 -14 0
-19 -13 15 0
4 -19 -6 0
13 15 27 0
21 8 -32 0
-16 12 32 0
7 -28 -31 0
23 -25 -3 0
32 9 12 0
-24 17 -19 0
18 -5 4 0
20 -6 19 0
