p cnf 26 112
-20 16 1 0
24 20 9 0
25 -6 -13 0
-20 5 21 0
-26 -20 -5 0
8 26 -6 0
11 4 5 0
-17 5 -1 0
-3 1 -17 0
2 11 -17 0
14 -21 24 0
21 -4 22 0
-19 16 -13 0
22 14 -15 0
20 26 21 0
16 -23 6 0
-17 -26 6 0
-1 24 -22 0
-14 13 -22 0
-18 -2 21 0
13 1 -8 0
-12 1 -18 0
-13 -2 -16 0
10 5 -19 0
-15 3 25 0
8 9 5 0
25 14 -12 0
11 -6 19 0
12 -1 11 0
-2 -26 11 0
-10 -26 -24 0
19 -7 23 0
-13 -7 17 0
-6 -9 -26 0
18 5 17 0
-3 -5 13 0
-18 20 -7 0
10 -18 -12 0
-12 5 21 0
16 25 21 0
25 -23 -15 0
5 -21 14 0
-24 19 7 0
5 -7 -18 0
-18 -14 17 0
-5 6 -24 0
-23 24 -16 0
17 -10 20 0
22 -20 -24 0
2 21 -16 0
13 -20 14 0
16 -21 1 0
5 -1 9 0
-12 19 18 0
4 21 13 0
-25 -5 -24 0
-3 6 17 0
-1 -19 6 0
11 25 7 0
-26 21 -19 0
-5 7 -25 0
25 -13 6 0
-15 5 -24 0
-14 17 -10 0
-6 18 16 0
3 -26 -2 0
-19 9 -2 0
19 -24 -15 0
5 18 8 0
-2 5 -1 0
17 11 25 0
-19 17 -21 0
-12 2 -13 0
-1 17 9 0
20 -17 -6 0
-23 2 -19 0
-1 -8 14 0
1 24 6 0
2 13 -3 0
9 19 -11 0
17 -12 25 0
-23 -15 -12 0
8 -26 -11 0
10 15 4 0
14 16 18 0
-26 22 1 0
6 -15 3 0
18 -21 -15 0
-15 -22 21 0
9 8 -2 0
-4 5 19 0
23 -13 1 0
14 11 9 0
20 -23 -10 0
26 25 -21 0
2 -17 -15 0
9 13 2 0
-16 -20 -3 0
-6 1 14 0
-24 4 -23 0
-24 6 -22 0
18 13 -26 0
8 -2 -9 0
-7 23 -24 0
25 3 -13 0
4 16 11 0
-1 -21 8 0
-10 6 -12 0
-13 -25 1 0
-20 1 10 0
1 -3 17 0
-25 2 -4 0
