c Uniform planted family; verification certificate stored separately
p cnf 32 88
18 16 20 0
-18 -16 20 0
-18 16 -20 0
18 -16 -20 0
23 25 18 0
-23 -25 18 0
-23 25 -18 0
23 -25 -18 0
22 12 31 0
-22 -12 31 0
-22 12 -31 0
22 -12 -31 0
-21 20 26 0
21 -20 26 0
21 20 -26 0
-21 -20 -26 0
8 2 5 0
-8 -2 5 0
-8 2 -5 0
8 -2 -5 0
-7 24 5 0
7 -24 5 0
7 24 -5 0
-7 -24 -5 0
1 21 19 0
-1 -21 19 0
-1 21 -19 0
1 -21 -19 0
-1 30 17 0
1 -30 17 0
1 30 -17 0
-1 -30 -17 0
11 19 17 0
-11 -19 17 0
-11 19 -17 0
11 -19 -17 0
-8 22 9 0
8 -22 9 0
8 22 -9 0
-8 -22 -9 0
12 13 10 0
-12 -13 10 0
-12 13 -10 0
12 -13 -10 0
-26 28 3 0
26 -28 3 0
26 28 -3 0
-26 -28 -3 0
-32 3 23 0
32 -3 23 0
32 3 -23 0
-32 -3 -23 0
25 24 4 0
-25 -24 4 0
-25 24 -4 0
25 -24 -4 0
30 6 27 0
-30 -6 27 0
-30 6 -27 0
30 -6 -27 0
7 16 11 0
-7 -16 11 0
-7 16 -11 0
7 -16 -11 0
10 29 27 0
-10 -29 27 0
-10 29 -27 0
10 -29 -27 0
-32 15 4 0
32 -15 4 0
32 15 -4 0
-32 -15 -4 0
6 29 28 0
-6 -29 28 0
-6 29 -28 0
6 -29 -28 0
9 13 15 0
-9 -13 15 0
-9 13 -15 0
9 -13 -15 0
31 14 2 0
-31 -14 2 0
-31 14 -2 0
31 -14 -2 0
-26 14 24 0
26 -14 24 0
26 14 -24 0
-26 -14 -24 0
