c Conventional planted SAT; verification witness stored separately
p cnf 288 1238
32 263 135 0
-175 114 -51 0
123 75 -105 0
104 72 284 0
218 -49 -118 0
-274 166 -210 0
220 -15 66 0
220 -113 72 0
255 27 -192 0
232 140 20 0
-271 5 -264 0
52 29 -189 0
-32 240 47 0
109 -195 -144 0
157 16 -202 0
127 -208 -8 0
204 -125 -114 0
15 212 61 0
98 -105 94 0
145 249 -147 0
41 233 -125 0
208 285 -8 0
199 214 -211 0
213 -17 8 0
-24 27 186 0
7 112 -28 0
-45 -66 247 0
-257 -189 -45 0
94 -37 -235 0
-150 -25 259 0
213 8 134 0
-276 186 -117 0
245 -250 246 0
3 -239 183 0
181 -120 107 0
-221 -112 -181 0
2 -105 156 0
-112 222 -280 0
53 159 -139 0
-278 273 -211 0
-25 227 -123 0
149 3 59 0
-80 31 -263 0
55 -137 96 0
-102 52 91 0
18 20 -33 0
102 122 -87 0
57 -194 217 0
174 -49 -161 0
-88 -202 2 0
262 138 70 0
58 234 -281 0
77 -219 233 0
51 -132 122 0
-182 140 181 0
112 -70 -102 0
136 -258 225 0
36 144 -109 0
-214 209 147 0
-166 -287 -255 0
125 222 -28 0
-142 245 124 0
-81 10 -200 0
71 -77 -210 0
1 229 280 0
248 112 -175 0
-96 -88 93 0
-206 -7 92 0
-20 216 -186 0
-134 -158 -51 0
-226 107 195 0
-216 3 276 0
-249 -95 105 0
181 -141 189 0
242 -12 51 0
-210 -2 -182 0
-226 25 -41 0
118 209 127 0
79 96 -227 0
76 248 54 0
-165 79 25 0
13 -38 -75 0
-21 -24 222 0
-71 123 259 0
-200 274 89 0
109 63 -101 0
262 181 -241 0
-279 13 178 0
-241 -126 223 0
-43 -206 137 0
-100 275 262 0
97 82 167 0
-61 -31 -32 0
-159 203 7 0
66 -83 -27 0
59 134 -77 0
185 116 -129 0
-89 -74 -142 0
203 247 -140 0
-168 103 226 0
-113 -53 -107 0
-276 -37 -121 0
99 231 -115 0
-112 -231 -109 0
259 156 111 0
-35 93 -129 0
-152 -273 11 0
107 -15 -269 0
-176 122 -165 0
98 -80 -121 0
-230 14 -221 0
108 119 15 0
-186 31 29 0
12 -7 -125 0
52 71 -108 0
-161 58 72 0
-121 -100 166 0
120 -46 139 0
-185 -247 231 0
-267 131 286 0
274 -20 -19 0
-253 -53 -270 0
-281 -212 69 0
257 -67 -265 0
-241 185 278 0
-62 238 -119 0
30 -261 -74 0
240 -157 -119 0
143 -49 204 0
-77 -122 -22 0
-140 108 199 0
-240 257 183 0
219 -226 -272 0
-286 -262 -103 0
-23 -28 -120 0
-49 -163 6 0
259 21 -264 0
163 -7 -203 0
92 59 -219 0
-99 -195 257 0
109 -116 -260 0
-203 223 -207 0
-44 278 -86 0
167 8 77 0
140 286 223 0
233 -51 -163 0
-217 -153 -110 0
55 -95 -42 0
25 -144 119 0
23 -130 169 0
-249 -36 125 0
-195 199 226 0
-240 197 110 0
-281 -128 -87 0
254 22 175 0
-25 145 84 0
264 172 -32 0
209 -70 -35 0
-80 115 266 0
198 286 11 0
212 -152 -67 0
-139 -123 -165 0
57 100 198 0
-35 98 17 0
-200 -238 -257 0
-109 -34 -155 0
-254 182 4 0
-132 -80 165 0
198 -170 -133 0
-248 180 176 0
-121 -177 -56 0
-201 -280 -54 0
-171 58 -279 0
72 236 249 0
-39 -54 -212 0
268 -270 286 0
98 113 18 0
69 70 288 0
-127 -69 -192 0
-235 -167 -53 0
119 -13 264 0
-276 -110 -20 0
147 -214 180 0
-230 -168 -159 0
222 21 243 0
-118 -212 -107 0
-196 -261 266 0
172 261 170 0
-201 270 89 0
-252 -185 -150 0
-31 79 -176 0
131 145 211 0
-218 -204 17 0
-273 234 31 0
266 194 -199 0
-107 17 52 0
282 -103 -191 0
213 -216 -283 0
160 167 189 0
-28 -222 52 0
-4 95 283 0
265 -137 246 0
67 -231 251 0
-180 -252 -137 0
-223 215 78 0
128 -285 34 0
-236 -157 272 0
169 -246 -81 0
30 -206 -275 0
-102 -207 246 0
66 -51 248 0
45 -92 -149 0
-267 -38 11 0
157 -142 60 0
-187 -73 265 0
-106 22 -174 0
-275 -237 -204 0
-55 258 102 0
-86 -53 -37 0
124 75 -63 0
243 -75 130 0
-264 -203 140 0
285 -269 -25 0
21 181 -271 0
-159 255 -86 0
-117 -166 167 0
-267 65 -126 0
47 10 156 0
236 287 140 0
-249 -282 197 0
179 242 222 0
-261 1 -269 0
137 -161 50 0
174 18 285 0
67 183 -164 0
252 -120 -256 0
120 154 -37 0
112 -108 72 0
-118 54 -41 0
67 166 92 0
150 216 -204 0
-171 -36 47 0
122 279 174 0
-206 -124 -96 0
274 -133 286 0
113 -248 -176 0
51 -97 -173 0
55 -226 167 0
-146 220 -78 0
-287 -79 -269 0
-97 -194 -81 0
79 -268 -179 0
13 -222 136 0
204 223 -74 0
124 -256 -170 0
-71 107 -144 0
256 -132 -88 0
21 -228 -280 0
-133 139 62 0
226 -96 -61 0
66 -198 -165 0
-109 71 -20 0
-63 85 245 0
65 -223 -37 0
29 -286 103 0
148 -244 -9 0
122 125 -202 0
-254 31 272 0
-236 -144 -64 0
71 87 -202 0
-157 -269 -236 0
272 -219 1 0
-221 117 -111 0
-198 -208 -265 0
-106 144 49 0
9 188 -45 0
3 152 84 0
-216 271 270 0
281 96 -42 0
104 -203 -210 0
42 118 175 0
76 -170 -192 0
-79 -2 42 0
-198 -24 -127 0
258 -176 109 0
-206 -208 105 0
-170 -69 -241 0
197 -278 34 0
-69 135 57 0
80 -185 -23 0
-238 -146 249 0
-175 -37 71 0
-112 245 75 0
-10 48 251 0
146 -235 -255 0
-269 -265 -193 0
24 242 -122 0
8 -117 54 0
273 -38 -20 0
-28 226 -205 0
130 221 -13 0
-209 94 121 0
-242 132 -120 0
-168 -279 227 0
-36 -47 133 0
211 -6 -189 0
-56 256 126 0
246 233 -145 0
-223 189 104 0
-162 -199 7 0
120 -122 -201 0
-231 -217 253 0
-221 -173 -89 0
215 46 -136 0
108 234 199 0
-4 9 6 0
-177 -249 248 0
108 156 91 0
-47 -281 123 0
141 -83 -284 0
-236 285 53 0
-255 -286 22 0
242 232 -141 0
-238 127 -218 0
-146 -65 -142 0
229 -118 256 0
-218 -103 133 0
40 -118 266 0
146 -18 -260 0
242 -265 -127 0
249 273 67 0
-71 191 -140 0
26 -123 -191 0
87 135 -139 0
139 185 239 0
-16 -14 -4 0
-126 -115 263 0
214 -20 -69 0
72 10 148 0
285 -170 122 0
-58 -89 80 0
287 -132 -165 0
237 243 -79 0
81 -98 -86 0
129 32 -184 0
242 94 84 0
279 -194 -156 0
160 -246 232 0
55 -43 249 0
2 273 255 0
-149 -68 -223 0
-192 -76 39 0
-202 -16 8 0
-96 -250 -64 0
-84 -207 -49 0
-79 179 -258 0
240 -109 -62 0
-86 84 -224 0
205 225 127 0
-25 -266 -166 0
232 -38 -130 0
143 -163 277 0
-205 -27 104 0
206 90 166 0
220 -79 -64 0
-254 279 -246 0
-3 -276 219 0
-204 22 224 0
204 78 32 0
158 101 201 0
-171 -271 -91 0
68 227 -279 0
203 24 40 0
26 156 -33 0
44 6 -258 0
-109 -85 103 0
170 -123 105 0
-279 -164 -208 0
140 64 -243 0
134 -262 170 0
2 -211 98 0
109 251 178 0
-239 -70 -73 0
37 -194 -60 0
49 -219 253 0
-112 -280 78 0
-66 -87 -222 0
22 249 -42 0
-25 -232 -93 0
-83 -11 -218 0
-269 -37 187 0
278 -122 -224 0
-268 155 99 0
91 265 196 0
-135 -267 -38 0
264 -250 -210 0
199 182 75 0
-24 201 252 0
-59 -66 71 0
277 -53 69 0
156 211 144 0
13 88 -15 0
213 -224 5 0
127 -143 253 0
-67 50 166 0
273 176 184 0
274 -272 -60 0
-255 -10 -145 0
-35 131 10 0
287 -155 -80 0
4 122 -228 0
113 273 21 0
-252 -132 123 0
-30 97 -119 0
-274 -262 -205 0
100 -17 -249 0
198 283 134 0
-219 -61 -34 0
-218 -167 283 0
203 236 231 0
-287 173 123 0
-189 -281 -65 0
263 -148 -110 0
-26 -145 167 0
-181 180 84 0
282 155 -83 0
-208 53 -36 0
-230 93 252 0
-269 219 -76 0
-177 138 189 0
-270 -218 139 0
-134 211 -258 0
204 142 199 0
243 162 149 0
151 -272 -131 0
-227 178 132 0
47 76 -158 0
126 281 157 0
83 107 40 0
-51 -73 125 0
6 23 129 0
-64 269 -88 0
240 -56 284 0
-97 207 -45 0
-206 226 251 0
59 -5 -261 0
106 -228 122 0
-133 43 90 0
259 244 72 0
145 -196 -122 0
122 -117 25 0
91 117 5 0
177 127 232 0
-36 258 91 0
213 -56 -267 0
78 163 48 0
121 -114 36 0
187 -80 -84 0
-226 69 127 0
-69 -187 -45 0
128 205 -104 0
-21 -107 -70 0
52 -268 8 0
-168 117 -1 0
-122 -80 -132 0
-167 53 184 0
180 221 156 0
211 -266 -109 0
-234 10 -119 0
27 94 117 0
22 -225 227 0
-241 -63 -236 0
-48 268 50 0
-2 209 132 0
-20 83 -138 0
187 -89 -225 0
28 -152 219 0
173 -17 58 0
-40 67 269 0
-189 -164 124 0
202 22 -82 0
80 154 -144 0
56 199 259 0
-197 233 -14 0
-189 44 -193 0
-224 8 184 0
261 -134 15 0
-26 -20 -64 0
-241 134 77 0
-263 -200 -143 0
-152 -162 -125 0
66 -176 186 0
111 268 -253 0
-273 18 12 0
-157 91 199 0
-273 8 -70 0
-12 97 -49 0
231 133 137 0
-64 -252 -120 0
269 264 -146 0
156 107 -218 0
-246 -213 -78 0
143 -256 -37 0
277 92 -255 0
260 276 -158 0
-285 199 -240 0
150 215 -146 0
-286 -35 86 0
-260 82 -259 0
-99 136 -196 0
-158 -61 87 0
-117 -5 20 0
123 -136 164 0
159 195 44 0
-26 -140 107 0
87 220 85 0
-256 87 -23 0
-63 -286 -117 0
-214 107 98 0
221 -85 212 0
86 242 -117 0
39 -262 8 0
-52 -177 102 0
-39 -253 159 0
-221 131 -73 0
279 188 -203 0
150 -215 45 0
17 243 -255 0
226 -84 96 0
-79 -50 287 0
236 -41 243 0
-211 242 -30 0
97 -163 -187 0
-78 197 -119 0
252 19 -155 0
-214 75 -46 0
-242 195 -21 0
162 -161 183 0
114 -69 165 0
157 -90 -71 0
-177 -257 -170 0
-166 -118 236 0
-268 65 -130 0
-176 12 -163 0
240 -189 39 0
-151 40 221 0
-55 -163 43 0
-21 41 218 0
138 272 140 0
38 109 39 0
108 259 -87 0
259 -257 237 0
-84 41 101 0
-91 248 -48 0
-233 130 -122 0
-120 35 153 0
-72 -184 -244 0
123 105 241 0
184 239 -21 0
80 -285 -45 0
-164 -172 -188 0
164 -7 101 0
-127 -97 148 0
-17 -63 -12 0
250 -158 140 0
120 251 149 0
-69 84 -163 0
60 222 -210 0
-211 -148 -146 0
-99 -26 -204 0
-198 -71 -35 0
196 -113 117 0
-19 192 94 0
254 222 288 0
177 -124 -229 0
11 126 97 0
132 268 -3 0
121 68 -216 0
176 213 -184 0
-281 -90 65 0
208 -252 -66 0
238 -178 175 0
237 -134 250 0
184 162 7 0
20 7 -43 0
-168 175 56 0
-224 -203 -199 0
-200 -16 -284 0
58 -171 130 0
-91 -161 -237 0
-229 -275 -91 0
90 -9 -229 0
-32 22 230 0
-184 36 -148 0
-78 -84 17 0
-187 -96 62 0
-247 227 101 0
-21 -156 15 0
-101 85 243 0
-267 -229 277 0
-10 -56 87 0
-98 -146 110 0
170 188 -19 0
-52 -18 -213 0
-216 -67 -201 0
99 246 -196 0
98 87 -165 0
-9 186 -238 0
203 -154 259 0
109 181 -65 0
-143 51 -80 0
-126 254 149 0
-112 -205 -43 0
183 125 87 0
-133 46 78 0
-126 85 251 0
130 71 -30 0
119 49 -253 0
-270 81 -20 0
103 -98 176 0
128 148 175 0
-88 162 69 0
-115 205 -284 0
245 -57 -140 0
-207 33 -143 0
69 -271 202 0
-20 -43 -154 0
-60 151 135 0
217 -117 2 0
-225 41 219 0
94 -147 254 0
230 122 -201 0
-223 -65 -204 0
17 -111 150 0
-146 -148 -192 0
120 -162 -30 0
44 -4 -53 0
204 -156 213 0
249 248 -13 0
140 -1 109 0
-162 -78 -82 0
150 -212 79 0
-60 -20 -261 0
88 175 -238 0
-9 159 169 0
-257 208 152 0
216 98 -109 0
-27 -239 -224 0
146 -9 -5 0
-21 225 280 0
-216 175 -231 0
-180 158 129 0
162 4 16 0
-92 -261 42 0
-54 -118 -163 0
-227 -84 -129 0
39 209 -256 0
-136 -268 247 0
-80 226 210 0
2 246 45 0
186 -85 -282 0
-33 -81 -193 0
-198 -180 1 0
-189 77 152 0
-48 -33 151 0
264 -277 -11 0
157 -81 -182 0
156 194 -251 0
-141 148 -20 0
265 148 -87 0
-255 127 173 0
6 46 190 0
221 -268 -162 0
-263 22 79 0
264 -31 176 0
178 -215 -36 0
76 239 -282 0
52 -65 169 0
-126 40 -272 0
-175 -58 238 0
-15 -274 5 0
-83 260 167 0
79 209 -17 0
-158 -111 -196 0
-140 -286 132 0
-170 95 128 0
-164 -17 87 0
-4 283 182 0
-77 177 114 0
201 38 -244 0
15 138 -135 0
117 -221 -180 0
279 218 -223 0
-132 -73 -17 0
97 -166 264 0
195 -191 117 0
261 -97 -266 0
-220 -103 27 0
-73 213 -49 0
35 209 39 0
-57 -36 -182 0
-41 168 188 0
-267 -199 -106 0
122 151 152 0
244 -99 -139 0
213 -255 26 0
-231 -136 -90 0
-110 -220 -218 0
141 -38 -110 0
263 -51 -243 0
-157 -161 -239 0
104 37 67 0
-63 -185 -81 0
-10 -31 143 0
191 9 -28 0
275 -188 25 0
-157 -230 -92 0
-245 -18 96 0
-120 -159 3 0
-137 -224 188 0
182 -103 -215 0
-244 -175 68 0
-194 107 -206 0
-108 -57 216 0
-146 -243 -229 0
-108 -18 200 0
114 -174 -182 0
-215 154 82 0
-24 -3 -258 0
-192 102 -124 0
-283 20 -281 0
179 157 5 0
-270 -179 -134 0
-40 -12 -51 0
124 185 -159 0
103 -259 42 0
-127 69 18 0
260 152 135 0
183 -144 110 0
164 -151 -28 0
-278 -221 196 0
-288 -70 -142 0
2 246 -41 0
187 117 284 0
181 123 227 0
-278 149 -167 0
165 -137 -186 0
112 56 283 0
120 -53 282 0
-160 -150 287 0
-121 137 222 0
242 262 -94 0
285 88 71 0
-28 -194 -264 0
-61 214 -136 0
106 235 188 0
-129 -163 211 0
-188 6 7 0
-231 18 -190 0
-207 -33 -199 0
-133 86 -253 0
-55 120 166 0
117 -282 -254 0
108 91 204 0
-81 172 250 0
-259 -234 19 0
263 -67 -177 0
90 141 -155 0
-61 -115 100 0
112 -236 203 0
-200 -98 51 0
-161 149 -129 0
-269 -207 171 0
126 206 224 0
288 -169 130 0
-200 157 58 0
-242 -20 -124 0
-187 -90 123 0
95 13 132 0
96 -97 246 0
139 13 149 0
255 187 74 0
18 -6 -118 0
-86 -87 124 0
101 252 169 0
253 288 -248 0
-3 72 -217 0
17 -34 42 0
-15 235 257 0
116 -10 -230 0
135 -117 161 0
-41 -244 -278 0
147 240 80 0
210 -69 -151 0
37 193 221 0
-111 -173 -115 0
-273 34 77 0
54 229 -176 0
184 -116 152 0
-228 158 131 0
-101 207 -126 0
-84 149 -166 0
-115 177 -28 0
-203 -86 -158 0
-73 -133 -58 0
-166 122 185 0
-196 12 182 0
178 44 237 0
168 243 219 0
-196 234 122 0
248 83 30 0
150 245 -122 0
227 -257 -130 0
-127 277 -107 0
238 -196 -73 0
-130 256 132 0
-110 166 -151 0
-178 -35 -27 0
194 232 68 0
-285 264 -147 0
187 87 -95 0
208 265 -186 0
-263 -97 -176 0
-266 -183 197 0
-234 203 87 0
190 -139 204 0
-23 1 -258 0
-21 192 182 0
-154 -221 146 0
132 79 21 0
137 -184 -83 0
29 -193 -279 0
-36 -7 41 0
239 56 234 0
-131 -108 30 0
120 149 -112 0
277 76 -117 0
-14 -140 -41 0
-165 232 163 0
261 -201 -222 0
-38 -280 166 0
-77 -26 232 0
-190 -232 270 0
215 33 95 0
164 165 87 0
-63 107 -166 0
-276 5 105 0
-43 -5 -51 0
-31 -3 -138 0
-111 128 68 0
-182 255 163 0
-100 -53 204 0
151 -137 -275 0
-39 -121 -248 0
38 -22 64 0
288 261 107 0
-240 274 -265 0
215 -98 220 0
275 88 76 0
-193 -45 248 0
203 16 -206 0
202 269 123 0
105 -180 109 0
-92 199 129 0
246 153 -226 0
-244 84 -278 0
61 -97 -104 0
-39 114 -161 0
-56 259 73 0
-248 65 45 0
-261 -278 166 0
185 50 -244 0
67 -177 218 0
241 -86 -212 0
172 107 -90 0
-165 261 18 0
-169 -131 29 0
61 239 21 0
-80 -105 -158 0
130 3 48 0
271 -18 167 0
250 -233 -244 0
47 -258 181 0
222 -224 -81 0
138 -261 259 0
-45 77 -5 0
-21 -239 -107 0
70 106 131 0
120 -182 -222 0
224 -282 122 0
-105 80 246 0
-136 192 98 0
30 271 190 0
43 -249 203 0
-108 39 282 0
104 55 100 0
251 -78 110 0
-2 225 173 0
-204 267 -203 0
270 -140 -203 0
20 -253 -78 0
161 -286 190 0
192 109 -138 0
243 103 -158 0
-109 167 -225 0
-133 287 230 0
-83 -219 107 0
133 139 -39 0
-241 229 -236 0
90 277 -156 0
-30 263 -39 0
-10 -115 -198 0
-237 57 -131 0
-171 258 -238 0
269 -281 276 0
200 -266 117 0
45 216 3 0
-27 -50 84 0
42 134 30 0
-199 -284 264 0
-194 -85 -120 0
-70 102 -277 0
63 -200 -235 0
121 217 -191 0
-172 130 -214 0
-67 -17 -112 0
21 -182 106 0
87 27 -231 0
241 233 -10 0
-56 -233 -112 0
282 126 -23 0
-229 -78 -163 0
116 150 235 0
111 61 283 0
-172 228 -58 0
241 -52 93 0
-139 196 258 0
-130 -232 -125 0
-109 -22 -138 0
213 162 -252 0
-142 158 143 0
84 83 181 0
-54 86 -68 0
-221 -256 184 0
276 -214 99 0
-245 -197 -87 0
-102 59 272 0
92 267 -230 0
55 -115 -74 0
195 252 211 0
-185 50 -142 0
-51 -101 -29 0
88 -72 211 0
194 -142 -89 0
91 -175 229 0
-141 122 60 0
-16 211 42 0
-36 -133 109 0
-158 -99 264 0
-145 209 -67 0
-218 -136 141 0
193 -155 -52 0
-203 -270 -179 0
276 14 60 0
97 -198 -205 0
129 283 117 0
-82 221 94 0
47 -236 266 0
-288 218 -275 0
71 225 194 0
-176 48 -158 0
-160 190 -70 0
263 221 -43 0
178 114 -197 0
-26 -167 31 0
-17 -7 86 0
1 -152 169 0
46 282 -148 0
240 -275 236 0
-184 263 93 0
-18 266 276 0
-165 -96 205 0
-83 -58 -139 0
105 264 212 0
103 214 118 0
37 10 243 0
208 -104 256 0
-118 -127 -115 0
-272 186 -104 0
166 -67 -182 0
65 -39 84 0
-45 253 -21 0
-236 104 -146 0
17 178 174 0
123 219 -98 0
-118 46 -234 0
-195 -206 167 0
-179 -19 -185 0
-182 193 137 0
-155 61 -273 0
215 86 271 0
-128 51 177 0
-190 -191 86 0
200 212 -232 0
-179 -165 129 0
-114 -142 -13 0
-207 -141 96 0
117 42 -146 0
-162 201 56 0
4 -160 254 0
-240 -158 258 0
-129 -24 192 0
-83 245 -231 0
224 -141 99 0
-104 -161 -33 0
80 239 -277 0
-234 -236 -279 0
63 51 -48 0
142 272 -120 0
268 -154 -139 0
42 -260 -247 0
37 79 89 0
44 -3 84 0
-116 -45 -156 0
-258 99 239 0
-148 -112 -163 0
160 -223 128 0
21 280 -12 0
-243 -70 199 0
-139 18 84 0
-145 79 -131 0
251 -222 195 0
90 126 -170 0
-137 111 -67 0
6 203 45 0
180 -183 139 0
231 285 -187 0
210 22 272 0
55 67 -151 0
-223 255 29 0
235 -11 -193 0
-220 -12 162 0
283 -192 -276 0
-125 -128 -27 0
272 -12 128 0
-237 84 203 0
-111 287 -283 0
-97 274 -172 0
-272 -6 -232 0
-184 259 -119 0
107 247 -280 0
7 126 248 0
196 20 -198 0
-77 226 237 0
-287 215 -60 0
-11 -202 150 0
39 -13 -88 0
-208 -267 274 0
197 196 273 0
-131 -71 -7 0
47 -24 260 0
-104 214 -181 0
148 -192 97 0
135 -238 162 0
24 225 -157 0
197 -245 -214 0
263 240 225 0
166 -19 -184 0
-30 -164 -4 0
153 114 92 0
-64 212 108 0
242 10 -21 0
-198 152 -245 0
-11 247 229 0
-257 275 -86 0
277 -104 -47 0
150 -225 -256 0
-176 -190 263 0
-136 -132 -264 0
-249 239 150 0
-79 193 -203 0
20 17 195 0
119 183 177 0
-118 146 239 0
-13 197 -206 0
-36 247 118 0
-69 -237 73 0
85 220 -140 0
168 113 50 0
-236 -274 239 0
238 196 -186 0
-179 -80 -287 0
-182 265 283 0
115 266 -39 0
-138 225 -164 0
-88 102 100 0
-142 227 26 0
-210 62 179 0
199 -275 -22 0
-125 -21 153 0
-272 -157 -85 0
57 18 -263 0
-143 -219 -190 0
102 -13 9 0
-153 -227 -19 0
211 -279 230 0
-85 160 -184 0
238 -96 -91 0
-38 -244 42 0
278 -186 117 0
-108 46 66 0
-248 129 268 0
6 234 -233 0
55 220 -140 0
-210 53 153 0
-109 43 -157 0
269 -133 -151 0
238 -61 245 0
-170 80 138 0
28 186 209 0
-16 -135 102 0
190 -166 -226 0
97 82 73 0
-59 180 -224 0
238 155 -113 0
9 -276 -267 0
-67 -5 -78 0
-47 -83 -32 0
-70 64 196 0
53 178 -216 0
173 49 -144 0
144 2 -267 0
100 -141 -134 0
-234 -130 -88 0
-264 269 166 0
81 176 234 0
225 -136 -265 0
239 259 167 0
38 -45 202 0
-20 267 -39 0
-6 97 256 0
131 -168 140 0
80 -224 -254 0
34 -85 284 0
-274 263 -150 0
-153 -199 258 0
221 52 82 0
-140 235 166 0
279 -88 -149 0
255 -198 -157 0
-200 147 48 0
-87 139 -282 0
-162 50 4 0
195 89 -138 0
11 -274 -209 0
-53 -77 -204 0
-148 210 179 0
93 32 -181 0
28 -160 266 0
-261 128 81 0
45 129 -24 0
-47 36 -30 0
39 42 136 0
-268 196 256 0
134 -30 91 0
91 164 -44 0
7 -165 180 0
177 -125 -191 0
-13 -80 200 0
-284 -106 -233 0
101 2 68 0
-35 -165 -195 0
-129 -161 -200 0
25 288 169 0
-35 209 116 0
256 -50 -273 0
-117 13 116 0
-30 230 -131 0
-196 253 -99 0
95 102 -110 0
-97 46 -159 0
202 -57 -153 0
266 159 34 0
-125 37 283 0
92 -32 -282 0
160 -223 -16 0
1 271 77 0
264 175 286 0
159 -93 -84 0
-64 201 -107 0
282 161 -77 0
149 -206 54 0
288 -194 -191 0
53 181 -81 0
53 7 -80 0
10 212 -158 0
96 -158 273 0
-87 134 -101 0
-95 125 -272 0
47 -175 -213 0
172 -112 -163 0
267 250 97 0
-262 275 140 0
-17 -169 195 0
-6 250 -72 0
89 165 285 0
258 -185 132 0
-227 -230 23 0
-104 2 -288 0
-248 -198 -192 0
114 229 99 0
231 -26 -142 0
-273 24 193 0
66 -166 63 0
-23 -209 -177 0
198 -203 -199 0
236 44 254 0
287 -258 6 0
109 36 48 0
-222 122 196 0
199 -23 -278 0
241 -118 -252 0
-207 -247 222 0
-31 -106 99 0
-98 129 99 0
-50 -126 -260 0
1 174 47 0
-55 -106 150 0
254 220 154 0
8 -238 -65 0
182 108 209 0
-78 174 227 0
-234 -270 -265 0
181 35 95 0
167 227 82 0
163 255 253 0
-275 274 -24 0
-271 -28 -169 0
