p cnf 20 86
15 16 11 0
-17 12 3 0
-5 19 -11 0
-5 11 15 0
-3 8 19 0
5 11 7 0
3 4 -9 0
-3 -13 16 0
6 7 19 0
-18 -1 20 0
-3 -18 -5 0
-12 -1 9 0
1 20 -16 0
-7 20 -18 0
5 18 -7 0
20 4 19 0
-10 13 -8 0
-18 10 -1 0
11 -19 7 0
1 11 -10 0
2 15 -13 0
-15 -11 9 0
-5 -6 -12 0
-2 18 -7 0
6 -5 -14 0
-18 14 2 0
17 -12 -13 0
14 16 -8 0
-14 19 -12 0
-20 3 8 0
3 -14 6 0
-18 -15 2 0
-4 5 15 0
-12 -16 20 0
-13 11 -15 0
-8 7 -17 0
-20 -8 -11 0
-16 -3 -19 0
8 17 3 0
1 7 17 0
-20 -11 -12 0
-17 -13 -1 0
-19 -4 -18 0
-16 10 -17 0
18 10 -19 0
-5 14 -11 0
-13 1 -6 0
-20 8 1 0
-8 -7 15 0
-13 -1 -4 0
12 -4 -6 0
-8 -13 -1 0
4 1 2 0
5 -17 4 0
-9 6 -13 0
16 4 -12 0
-7 1 -13 0
-6 7 -15 0
-20 -18 11 0
3 -15 5 0
-8 3 7 0
-8 -14 -4 0
-4 9 -12 0
-18 1 -14 0
-17 8 -2 0
4 10 -20 0
-10 -8 -16 0
-5 7 9 0
2 3 -9 0
10 9 -6 0
2 -10 14 0
-14 -4 -20 0
-15 9 20 0
-12 9 6 0
5 -1 18 0
-5 -2 -10 0
-1 -18 -17 0
18 4 -16 0
-6 9 14 0
19 20 -1 0
5 20 -3 0
2 11 -19 0
7 5 8 0
-18 -13 9 0
11 -20 -19 0
10 16 -9 0
