c Uniform planted family; verification certificate stored separately
p cnf 288 772
-75 185 193 0
75 -185 193 0
75 185 -193 0
-75 -185 -193 0
-84 92 5 0
84 -92 5 0
84 92 -5 0
-84 -92 -5 0
-110 254 147 0
110 -254 147 0
110 254 -147 0
-110 -254 -147 0
-54 80 117 0
54 -80 117 0
54 80 -117 0
-54 -80 -117 0
-172 170 243 0
172 -170 243 0
172 170 -243 0
-172 -170 -243 0
148 223 174 0
-148 -223 174 0
-148 223 -174 0
148 -223 -174 0
269 20 187 0
-269 -20 187 0
-269 20 -187 0
269 -20 -187 0
-214 254 25 0
214 -254 25 0
214 254 -25 0
-214 -254 -25 0
-255 43 200 0
255 -43 200 0
255 43 -200 0
-255 -43 -200 0
10 275 130 0
-10 -275 130 0
-10 275 -130 0
10 -275 -130 0
-220 28 59 0
220 -28 59 0
220 28 -59 0
-220 -28 -59 0
-188 100 234 0
188 -100 234 0
188 100 -234 0
-188 -100 -234 0
-150 16 43 0
150 -16 43 0
150 16 -43 0
-150 -16 -43 0
-221 97 211 0
221 -97 211 0
221 97 -211 0
-221 -97 -211 0
-73 177 270 0
73 -177 270 0
73 177 -270 0
-73 -177 -270 0
-125 60 281 0
125 -60 281 0
125 60 -281 0
-125 -60 -281 0
-178 190 37 0
178 -190 37 0
178 190 -37 0
-178 -190 -37 0
133 58 30 0
-133 -58 30 0
-133 58 -30 0
133 -58 -30 0
-161 3 66 0
161 -3 66 0
161 3 -66 0
-161 -3 -66 0
41 164 33 0
-41 -164 33 0
-41 164 -33 0
41 -164 -33 0
-69 6 207 0
69 -6 207 0
69 6 -207 0
-69 -6 -207 0
-60 126 76 0
60 -126 76 0
60 126 -76 0
-60 -126 -76 0
-82 72 121 0
82 -72 121 0
82 72 -121 0
-82 -72 -121 0
267 95 202 0
-267 -95 202 0
-267 95 -202 0
267 -95 -202 0
-46 288 272 0
46 -288 272 0
46 288 -272 0
-46 -288 -272 0
127 86 112 0
-127 -86 112 0
-127 86 -112 0
127 -86 -112 0
267 228 159 0
-267 -228 159 0
-267 228 -159 0
267 -228 -159 0
-163 177 252 0
163 -177 252 0
163 177 -252 0
-163 -177 -252 0
-101 222 49 0
101 -222 49 0
101 222 -49 0
-101 -222 -49 0
-284 251 47 0
284 -251 47 0
284 251 -47 0
-284 -251 -47 0
-222 50 184 0
222 -50 184 0
222 50 -184 0
-222 -50 -184 0
185 139 85 0
-185 -139 85 0
-185 139 -85 0
185 -139 -85 0
15 123 143 0
-15 -123 143 0
-15 123 -143 0
15 -123 -143 0
90 94 273 0
-90 -94 273 0
-90 94 -273 0
90 -94 -273 0
215 250 244 0
-215 -250 244 0
-215 250 -244 0
215 -250 -244 0
157 261 271 0
-157 -261 271 0
-157 261 -271 0
157 -261 -271 0
204 251 91 0
-204 -251 91 0
-204 251 -91 0
204 -251 -91 0
104 28 206 0
-104 -28 206 0
-104 28 -206 0
104 -28 -206 0
-32 49 211 0
32 -49 211 0
32 49 -211 0
-32 -49 -211 0
-232 132 70 0
232 -132 70 0
232 132 -70 0
-232 -132 -70 0
-183 164 39 0
183 -164 39 0
183 164 -39 0
-183 -164 -39 0
31 18 45 0
-31 -18 45 0
-31 18 -45 0
31 -18 -45 0
-108 87 210 0
108 -87 210 0
108 87 -210 0
-108 -87 -210 0
-242 65 57 0
242 -65 57 0
242 65 -57 0
-242 -65 -57 0
34 119 12 0
-34 -119 12 0
-34 119 -12 0
34 -119 -12 0
-257 67 248 0
257 -67 248 0
257 67 -248 0
-257 -67 -248 0
-286 240 45 0
286 -240 45 0
286 240 -45 0
-286 -240 -45 0
110 26 136 0
-110 -26 136 0
-110 26 -136 0
110 -26 -136 0
-149 156 89 0
149 -156 89 0
149 156 -89 0
-149 -156 -89 0
-187 193 243 0
187 -193 243 0
187 193 -243 0
-187 -193 -243 0
-108 145 38 0
108 -145 38 0
108 145 -38 0
-108 -145 -38 0
274 166 282 0
-274 -166 282 0
-274 166 -282 0
274 -166 -282 0
-47 88 96 0
47 -88 96 0
47 88 -96 0
-47 -88 -96 0
256 73 231 0
-256 -73 231 0
-256 73 -231 0
256 -73 -231 0
-79 256 154 0
79 -256 154 0
79 256 -154 0
-79 -256 -154 0
-70 205 156 0
70 -205 156 0
70 205 -156 0
-70 -205 -156 0
-83 207 130 0
83 -207 130 0
83 207 -130 0
-83 -207 -130 0
-199 134 146 0
199 -134 146 0
199 134 -146 0
-199 -134 -146 0
99 106 80 0
-99 -106 80 0
-99 106 -80 0
99 -106 -80 0
-212 250 283 0
212 -250 283 0
212 250 -283 0
-212 -250 -283 0
219 141 147 0
-219 -141 147 0
-219 141 -147 0
219 -141 -147 0
226 192 117 0
-226 -192 117 0
-226 192 -117 0
226 -192 -117 0
-32 182 217 0
32 -182 217 0
32 182 -217 0
-32 -182 -217 0
-228 165 260 0
228 -165 260 0
228 165 -260 0
-228 -165 -260 0
29 94 182 0
-29 -94 182 0
-29 94 -182 0
29 -94 -182 0
288 69 265 0
-288 -69 265 0
-288 69 -265 0
288 -69 -265 0
68 11 40 0
-68 -11 40 0
-68 11 -40 0
68 -11 -40 0
129 50 160 0
-129 -50 160 0
-129 50 -160 0
129 -50 -160 0
232 284 209 0
-232 -284 209 0
-232 284 -209 0
232 -284 -209 0
-173 145 36 0
173 -145 36 0
173 145 -36 0
-173 -145 -36 0
181 9 246 0
-181 -9 246 0
-181 9 -246 0
181 -9 -246 0
-184 208 13 0
184 -208 13 0
184 208 -13 0
-184 -208 -13 0
-283 53 235 0
283 -53 235 0
283 53 -235 0
-283 -53 -235 0
-178 64 39 0
178 -64 39 0
178 64 -39 0
-178 -64 -39 0
89 96 141 0
-89 -96 141 0
-89 96 -141 0
89 -96 -141 0
260 234 146 0
-260 -234 146 0
-260 234 -146 0
260 -234 -146 0
-229 63 113 0
229 -63 113 0
229 63 -113 0
-229 -63 -113 0
167 269 75 0
-167 -269 75 0
-167 269 -75 0
167 -269 -75 0
-23 19 131 0
23 -19 131 0
23 19 -131 0
-23 -19 -131 0
122 168 16 0
-122 -168 16 0
-122 168 -16 0
122 -168 -16 0
135 48 90 0
-135 -48 90 0
-135 48 -90 0
135 -48 -90 0
-15 263 133 0
15 -263 133 0
15 263 -133 0
-15 -263 -133 0
263 268 252 0
-263 -268 252 0
-263 268 -252 0
263 -268 -252 0
-264 241 152 0
264 -241 152 0
264 241 -152 0
-264 -241 -152 0
33 51 122 0
-33 -51 122 0
-33 51 -122 0
33 -51 -122 0
-61 219 209 0
61 -219 209 0
61 219 -209 0
-61 -219 -209 0
-186 201 120 0
186 -201 120 0
186 201 -120 0
-186 -201 -120 0
196 181 169 0
-196 -181 169 0
-196 181 -169 0
196 -181 -169 0
244 213 7 0
-244 -213 7 0
-244 213 -7 0
244 -213 -7 0
266 85 168 0
-266 -85 168 0
-266 85 -168 0
266 -85 -168 0
-149 233 236 0
149 -233 236 0
149 233 -236 0
-149 -233 -236 0
-279 83 11 0
279 -83 11 0
279 83 -11 0
-279 -83 -11 0
-27 275 138 0
27 -275 138 0
27 275 -138 0
-27 -275 -138 0
81 203 57 0
-81 -203 57 0
-81 203 -57 0
81 -203 -57 0
-86 4 278 0
86 -4 278 0
86 4 -278 0
-86 -4 -278 0
-214 221 218 0
214 -221 218 0
214 221 -218 0
-214 -221 -218 0
217 111 174 0
-217 -111 174 0
-217 111 -174 0
217 -111 -174 0
-150 268 238 0
150 -268 238 0
150 268 -238 0
-150 -268 -238 0
-186 200 136 0
186 -200 136 0
186 200 -136 0
-186 -200 -136 0
223 102 276 0
-223 -102 276 0
-223 102 -276 0
223 -102 -276 0
-239 62 230 0
239 -62 230 0
239 62 -230 0
-239 -62 -230 0
-34 277 189 0
34 -277 189 0
34 277 -189 0
-34 -277 -189 0
-255 2 247 0
255 -2 247 0
255 2 -247 0
-255 -2 -247 0
216 286 202 0
-216 -286 202 0
-216 286 -202 0
216 -286 -202 0
-213 114 10 0
213 -114 10 0
213 114 -10 0
-213 -114 -10 0
-84 235 241 0
84 -235 241 0
84 235 -241 0
-84 -235 -241 0
52 176 257 0
-52 -176 257 0
-52 176 -257 0
52 -176 -257 0
-173 62 77 0
173 -62 77 0
173 62 -77 0
-173 -62 -77 0
-115 64 238 0
115 -64 238 0
115 64 -238 0
-115 -64 -238 0
158 128 172 0
-158 -128 172 0
-158 128 -172 0
158 -128 -172 0
-61 91 272 0
61 -91 272 0
61 91 -272 0
-61 -91 -272 0
280 74 104 0
-280 -74 104 0
-280 74 -104 0
280 -74 -104 0
-76 121 224 0
76 -121 224 0
76 121 -224 0
-76 -121 -224 0
-24 226 253 0
24 -226 253 0
24 226 -253 0
-24 -226 -253 0
-261 71 35 0
261 -71 35 0
261 71 -35 0
-261 -71 -35 0
175 215 153 0
-175 -215 153 0
-175 215 -153 0
175 -215 -153 0
-210 105 63 0
210 -105 63 0
210 105 -63 0
-210 -105 -63 0
-248 140 258 0
248 -140 258 0
248 140 -258 0
-248 -140 -258 0
-236 71 12 0
236 -71 12 0
236 71 -12 0
-236 -71 -12 0
-190 1 128 0
190 -1 128 0
190 1 -128 0
-190 -1 -128 0
-26 285 227 0
26 -285 227 0
26 285 -227 0
-26 -285 -227 0
277 201 206 0
-277 -201 206 0
-277 201 -206 0
277 -201 -206 0
191 59 106 0
-191 -59 106 0
-191 59 -106 0
191 -59 -106 0
-170 98 9 0
170 -98 9 0
170 98 -9 0
-170 -98 -9 0
-270 129 227 0
270 -129 227 0
270 129 -227 0
-270 -129 -227 0
82 191 262 0
-82 -191 262 0
-82 191 -262 0
82 -191 -262 0
199 194 98 0
-199 -194 98 0
-199 194 -98 0
199 -194 -98 0
8 274 46 0
-8 -274 46 0
-8 274 -46 0
8 -274 -46 0
-116 24 153 0
116 -24 153 0
116 24 -153 0
-116 -24 -153 0
-101 79 266 0
101 -79 266 0
101 79 -266 0
-101 -79 -266 0
-285 204 179 0
285 -204 179 0
285 204 -179 0
-285 -204 -179 0
171 230 72 0
-171 -230 72 0
-171 230 -72 0
171 -230 -72 0
40 162 144 0
-40 -162 144 0
-40 162 -144 0
40 -162 -144 0
124 158 88 0
-124 -158 88 0
-124 158 -88 0
124 -158 -88 0
44 29 237 0
-44 -29 237 0
-44 29 -237 0
44 -29 -237 0
259 119 115 0
-259 -119 115 0
-259 119 -115 0
259 -119 -115 0
-1 78 212 0
1 -78 212 0
1 78 -212 0
-1 -78 -212 0
23 231 143 0
-23 -231 143 0
-23 231 -143 0
23 -231 -143 0
-107 262 66 0
107 -262 66 0
107 262 -66 0
-107 -262 -66 0
93 55 127 0
-93 -55 127 0
-93 55 -127 0
93 -55 -127 0
-93 144 14 0
93 -144 14 0
93 144 -14 0
-93 -144 -14 0
-112 154 78 0
112 -154 78 0
112 154 -78 0
-112 -154 -78 0
189 56 155 0
-189 -56 155 0
-189 56 -155 0
189 -56 -155 0
135 264 166 0
-135 -264 166 0
-135 264 -166 0
135 -264 -166 0
-132 31 208 0
132 -31 208 0
132 31 -208 0
-132 -31 -208 0
-188 175 237 0
188 -175 237 0
188 175 -237 0
-188 -175 -237 0
-198 103 265 0
198 -103 265 0
198 103 -265 0
-198 -103 -265 0
239 113 203 0
-239 -113 203 0
-239 113 -203 0
239 -113 -203 0
114 2 165 0
-114 -2 165 0
-114 2 -165 0
114 -2 -165 0
-180 161 258 0
180 -161 258 0
180 161 -258 0
-180 -161 -258 0
-282 195 194 0
282 -195 194 0
282 195 -194 0
-282 -195 -194 0
229 242 13 0
-229 -242 13 0
-229 242 -13 0
229 -242 -13 0
118 155 151 0
-118 -155 151 0
-118 155 -151 0
118 -155 -151 0
-134 45 216 0
134 -45 216 0
134 45 -216 0
-134 -45 -216 0
22 142 118 0
-22 -142 118 0
-22 142 -118 0
22 -142 -118 0
-220 159 8 0
220 -159 8 0
220 159 -8 0
-220 -159 -8 0
-4 176 51 0
4 -176 51 0
4 176 -51 0
-4 -176 -51 0
-224 197 152 0
224 -197 152 0
224 197 -152 0
-224 -197 -152 0
126 259 160 0
-126 -259 160 0
-126 259 -160 0
126 -259 -160 0
-281 19 44 0
281 -19 44 0
281 19 -44 0
-281 -19 -44 0
-48 157 245 0
48 -157 245 0
48 157 -245 0
-48 -157 -245 0
-67 42 198 0
67 -42 198 0
67 42 -198 0
-67 -42 -198 0
-171 109 125 0
171 -109 125 0
171 109 -125 0
-171 -109 -125 0
-58 225 14 0
58 -225 14 0
58 225 -14 0
-58 -225 -14 0
-109 253 124 0
109 -253 124 0
109 253 -124 0
-109 -253 -124 0
-279 169 246 0
279 -169 246 0
279 169 -246 0
-279 -169 -246 0
138 54 77 0
-138 -54 77 0
-138 54 -77 0
138 -54 -77 0
-56 18 111 0
56 -18 111 0
56 18 -111 0
-56 -18 -111 0
-97 225 92 0
97 -225 92 0
97 225 -92 0
-97 -225 -92 0
247 120 245 0
-247 -120 245 0
-247 120 -245 0
247 -120 -245 0
249 25 142 0
-249 -25 142 0
-249 25 -142 0
249 -25 -142 0
180 35 233 0
-180 -35 233 0
-180 35 -233 0
180 -35 -233 0
218 3 151 0
-218 -3 151 0
-218 3 -151 0
218 -3 -151 0
-280 53 21 0
280 -53 21 0
280 53 -21 0
-280 -53 -21 0
105 249 123 0
-105 -249 123 0
-105 249 -123 0
105 -249 -123 0
-139 205 116 0
139 -205 116 0
139 205 -116 0
-139 -205 -116 0
68 17 22 0
-68 -17 22 0
-68 17 -22 0
68 -17 -22 0
-95 55 195 0
95 -55 195 0
95 55 -195 0
-95 -55 -195 0
240 100 74 0
-240 -100 74 0
-240 100 -74 0
240 -100 -74 0
-37 102 271 0
37 -102 271 0
37 102 -271 0
-37 -102 -271 0
-179 7 276 0
179 -7 276 0
179 7 -276 0
-179 -7 -276 0
-163 81 52 0
163 -81 52 0
163 81 -52 0
-163 -81 -52 0
137 43 192 0
-137 -43 192 0
-137 43 -192 0
137 -43 -192 0
148 65 21 0
-148 -65 21 0
-148 65 -21 0
148 -65 -21 0
-278 103 197 0
278 -103 197 0
278 103 -197 0
-278 -103 -197 0
287 167 140 0
-287 -167 140 0
-287 167 -140 0
287 -167 -140 0
162 6 183 0
-162 -6 183 0
-162 6 -183 0
162 -6 -183 0
-273 38 107 0
273 -38 107 0
273 38 -107 0
-273 -38 -107 0
131 87 41 0
-131 -87 41 0
-131 87 -41 0
131 -87 -41 0
137 36 196 0
-137 -36 196 0
-137 36 -196 0
137 -36 -196 0
-30 99 20 0
30 -99 20 0
30 99 -20 0
-30 -99 -20 0
17 42 27 0
-17 -42 27 0
-17 42 -27 0
17 -42 -27 0
5 287 189 0
-5 -287 189 0
-5 287 -189 0
5 -287 -189 0
