p cnf 14 60
4 -10 -5 0
-7 6 -11 0
6 -11 -12 0
10 4 -11 0
3 4 -1 0
6 1 -10 0
-9 -14 1 0
-13 8 -1 0
7 -3 12 0
-4 14 -13 0
-5 6 -9 0
12 -9 6 0
-8 10 -7 0
-4 14 -8 0
-12 -3 5 0
-10 -4 1 0
7 2 13 0
-14 10 -5 0
-6 -8 10 0
-3 4 2 0
-13 1 -14 0
-2 -4 -8 0
-14 3 -1 0
-8 6 5 0
11 -3 7 0
2 -10 9 0
-13 1 4 0
-5 -13 14 0
4 11 -8 0
6 -12 -9 0
-8 -2 -12 0
2 1 14 0
13 14 -11 0
-9 5 -10 0
-9 13 -10 0
7 -5 2 0
-13 9 7 0
2 -1 10 0
4 -8 -2 0
1 -13 -4 0
-9 14 6 0
-12 -8 -1 0
13 -12 9 0
2 12 -13 0
-8 10 9 0
8 4 -9 0
9 6 3 0
-4 -13 -8 0
-3 -7 -12 0
6 11 -9 0
3 -1 -7 0
-13 14 2 0
-3 -1 6 0
7 -12 -8 0
5 6 1 0
9 7 -12 0
-4 -11 8 0
6 -10 -2 0
-13 -11 -10 0
-8 -11 14 0
