p cnf 32 138
19 -1 -20 0
-3 11 30 0
25 3 -27 0
13 3 -11 0
-8 26 -4 0
16 -32 -4 0
21 1 -13 0
14 29 -22 0
32 -12 9 0
-29 9 -5 0
10 -32 -8 0
8 -9 -20 0
-12 28 14 0
29 25 -20 0
-22 1 12 0
25 -26 23 0
-8 23 -15 0
6 15 1 0
24 -16 -28 0
-1 20 28 0
25 20 -10 0
-12 26 17 0
16 1 -10 0
-28 7 15 0
-29 -30 1 0
-26 15 -13 0
-23 -13 1 0
-21 10 -19 0
3 -7 4 0
-8 9 -29 0
-21 10 5 0
9 16 -18 0
-29 -4 1 0
17 -25 -28 0
-3 -19 10 0
7 11 -20 0
20 29 23 0
-20 27 -29 0
23 -7 22 0
3 31 10 0
29 12 3 0
-5 -15 -31 0
-28 -3 -30 0
-12 -6 16 0
-21 27 7 0
-31 -20 25 0
-18 -17 30 0
-16 8 21 0
-15 5 24 0
2 7 -1 0
-1 8 10 0
12 -23 -27 0
-25 4 -17 0
2 24 -26 0
28 7 -17 0
19 28 -12 0
30 -23 28 0
-9 -26 10 0
-4 -15 -9 0
1 7 31 0
31 29 27 0
19 -30 -29 0
4 12 24 0
20 1 -2 0
-28 -4 -31 0
-23 -11 26 0
16 32 -15 0
-12 8 26 0
-9 1 -12 0
19 -25 7 0
-24 1 -15 0
9 7 24 0
12 7 4 0
4 20 -15 0
-25 -18 -28 0
-11 -28 18 0
-7 19 18 0
26 6 -31 0
-24 3 26 0
-10 -8 26 0
1 -19 5 0
-7 -18 19 0
-23 -12 14 0
-6 -13 12 0
-21 19 15 0
12 -30 -18 0
6 16 -28 0
3 24 -22 0
13 -9 25 0
-11 -15 -1 0
15 4 -10 0
-16 -26 -6 0
2 7 17 0
-20 4 5 0
-17 32 -19 0
22 -4 -20 0
-10 9 4 0
4 -26 31 0
-1 5 30 0
-12 -25 20 0
-17 7 -20 0
-13 -4 -2 0
-28 -12 31 0
30 -19 -8 0
-25 -7 -30 0
-2 32 15 0
8 -28 17 0
2 26 25 0
5 19 -30 0
-25 -32 18 0
24 30 5 0
14 8 -16 0
24 5 -16 0
26 13 6 0
22 -30 -28 0
-13 25 -12 0
26 -21 32 0
-4 -7 -32 0
27 9 28 0
-16 5 -30 0
24 -20 22 0
3 -20 -8 0
-23 -8 -26 0
-19 1 -24 0
6 -7 -20 0
11 -6 -10 0
24 -14 11 0
-29 -31 -2 0
-30 -24 -7 0
2 -8 32 0
24 -9 6 0
-12 25 20 0
-12 -7 -23 0
-28 -4 -10 0
-3 24 -30 0
-6 -26 19 0
-17 -27 4 0
32 3 20 0
