p cnf 26 72
13 5 1 0
13 -5 -1 0
-13 5 -1 0
-13 -5 1 0
1 25 11 0
1 -25 -11 0
-1 25 -11 0
-1 -25 11 0
14 9 -20 0
14 -9 20 0
-14 9 20 0
-14 -9 -20 0
16 8 24 0
16 -8 -24 0
-16 8 -24 0
-16 -8 24 0
9 12 11 0
9 -12 -11 0
-9 12 -11 0
-9 -12 11 0
12 2 -17 0
12 -2 17 0
-12 2 17 0
-12 -2 -17 0
3 15 18 0
3 -15 -18 0
-3 15 -18 0
-3 -15 18 0
4 2 -18 0
4 -2 18 0
-4 2 18 0
-4 -2 -18 0
5 7 -6 0
5 -7 6 0
-5 7 6 0
-5 -7 -6 0
22 16 -19 0
22 -16 19 0
-22 16 19 0
-22 -16 -19 0
8 14 15 0
8 -14 -15 0
-8 14 -15 0
-8 -14 15 0
6 17 -24 0
6 -17 24 0
-6 17 24 0
-6 -17 -24 0
25 26 -24 0
25 -26 24 0
-25 26 24 0
-25 -26 -24 0
23 21 26 0
23 -21 -26 0
-23 21 -26 0
-23 -21 26 0
10 23 -3 0
10 -23 3 0
-10 23 3 0
-10 -23 -3 0
20 10 21 0
20 -10 -21 0
-20 10 -21 0
-20 -10 21 0
6 13 7 0
6 -13 -7 0
-6 13 -7 0
-6 -13 7 0
19 22 4 0
19 -22 -4 0
-19 22 -4 0
-19 -22 4 0
