p cnf 32 88
32 18 -17 0
32 -18 17 0
-32 18 17 0
-32 -18 -17 0
31 25 -27 0
31 -25 27 0
-31 25 27 0
-31 -25 -27 0
1 11 14 0
1 -11 -14 0
-1 11 -14 0
-1 -11 14 0
21 23 29 0
21 -23 -29 0
-21 23 -29 0
-21 -23 29 0
3 23 -10 0
3 -23 10 0
-3 23 10 0
-3 -23 -10 0
19 1 26 0
19 -1 -26 0
-19 1 -26 0
-19 -1 26 0
8 9 28 0
8 -9 -28 0
-8 9 -28 0
-8 -9 28 0
30 7 15 0
30 -7 -15 0
-30 7 -15 0
-30 -7 15 0
2 4 13 0
2 -4 -13 0
-2 4 -13 0
-2 -4 13 0
20 28 -18 0
20 -28 18 0
-20 28 18 0
-20 -28 -18 0
20 30 -15 0
20 -30 15 0
-20 30 15 0
-20 -30 -15 0
13 29 -8 0
13 -29 8 0
-13 29 8 0
-13 -29 -8 0
11 12 7 0
11 -12 -7 0
-11 12 -7 0
-11 -12 7 0
16 17 12 0
16 -17 -12 0
-16 17 -12 0
-16 -17 12 0
14 3 -27 0
14 -3 27 0
-14 3 27 0
-14 -3 -27 0
16 5 -10 0
16 -5 10 0
-16 5 10 0
-16 -5 -10 0
24 4 -21 0
24 -4 21 0
-24 4 21 0
-24 -4 -21 0
26 22 -25 0
26 -22 25 0
-26 22 25 0
-26 -22 -25 0
24 19 21 0
24 -19 -21 0
-24 19 -21 0
-24 -19 21 0
2 9 -6 0
2 -9 6 0
-2 9 6 0
-2 -9 -6 0
31 22 -32 0
31 -22 32 0
-31 22 32 0
-31 -22 -32 0
6 5 9 0
6 -5 -9 0
-6 5 -9 0
-6 -5 9 0
