p cnf 26 112
-16 24 -13 0
4 25 -9 0
-19 -25 13 0
21 -23 -3 0
16 22 7 0
26 -24 2 0
23 -17 -16 0
-11 2 7 0
-5 -8 -16 0
-1 4 22 0
-12 16 -21 0
21 13 1 0
-4 -7 -22 0
6 -12 20 0
-11 -5 26 0
-3 -15 -23 0
-6 16 -10 0
-17 16 -18 0
9 20 -8 0
9 -14 4 0
-12 10 5 0
-22 21 4 0
7 4 10 0
5 -16 -2 0
9 11 -12 0
-12 18 10 0
-6 8 11 0
20 12 19 0
-6 19 -13 0
-10 11 13 0
19 22 -3 0
-25 -3 4 0
17 -16 -22 0
-10 -20 -4 0
-1 17 10 0
2 -23 21 0
-20 -14 -24 0
18 3 -13 0
-23 24 4 0
-21 -20 -11 0
-7 -25 -26 0
26 -4 -12 0
-2 -11 23 0
-19 -13 21 0
-24 16 17 0
16 18 -23 0
-26 12 -21 0
14 25 -16 0
24 -23 -17 0
11 -22 -25 0
1 3 -7 0
-8 20 -16 0
-4 20 -9 0
-3 12 10 0
-3 -4 10 0
22 7 -6 0
21 -25 -9 0
-12 -24 -4 0
11 7 -16 0
-12 -14 -21 0
-15 -17 -26 0
10 -18 -22 0
23 -6 15 0
-15 16 3 0
-24 -4 -2 0
-23 25 6 0
-4 11 10 0
17 -22 -8 0
26 -6 -7 0
20 -24 4 0
2 24 -19 0
-25 -21 -9 0
1 3 8 0
23 25 -14 0
-7 -18 -5 0
10 -24 15 0
14 -9 20 0
-15 -9 -5 0
13 -14 6 0
-8 -10 3 0
-10 25 22 0
-2 -8 -4 0
-7 22 -19 0
24 20 -4 0
15 -2 7 0
-11 4 24 0
1 -6 -16 0
7 -5 12 0
-7 6 -12 0
-15 -24 2 0
-16 12 -26 0
24 -4 -9 0
-7 17 1 0
-8 -11 -16 0
-16 -9 20 0
-9 -2 -23 0
-16 4 13 0
21 -4 -2 0
-19 -22 -9 0
-1 -24 17 0
-4 -15 -14 0
21 -19 -10 0
-2 4 26 0
-14 1 3 0
3 25 -13 0
17 -24 -19 0
-20 1 19 0
-4 -8 3 0
-4 -25 15 0
-13 18 14 0
-14 11 8 0
-26 10 11 0
