c Uniform planted family; verification certificate stored separately
p cnf 128 344
44 57 10 0
-44 -57 10 0
-44 57 -10 0
44 -57 -10 0
112 65 80 0
-112 -65 80 0
-112 65 -80 0
112 -65 -80 0
-112 63 7 0
112 -63 7 0
112 63 -7 0
-112 -63 -7 0
53 100 43 0
-53 -100 43 0
-53 100 -43 0
53 -100 -43 0
-20 16 118 0
20 -16 118 0
20 16 -118 0
-20 -16 -118 0
-17 85 19 0
17 -85 19 0
17 85 -19 0
-17 -85 -19 0
-97 64 68 0
97 -64 68 0
97 64 -68 0
-97 -64 -68 0
95 107 113 0
-95 -107 113 0
-95 107 -113 0
95 -107 -113 0
126 39 71 0
-126 -39 71 0
-126 39 -71 0
126 -39 -71 0
43 56 41 0
-43 -56 41 0
-43 56 -41 0
43 -56 -41 0
44 1 57 0
-44 -1 57 0
-44 1 -57 0
44 -1 -57 0
113 73 45 0
-113 -73 45 0
-113 73 -45 0
113 -73 -45 0
-81 45 85 0
81 -45 85 0
81 45 -85 0
-81 -45 -85 0
24 115 40 0
-24 -115 40 0
-24 115 -40 0
24 -115 -40 0
-34 77 118 0
34 -77 118 0
34 77 -118 0
-34 -77 -118 0
83 128 51 0
-83 -128 51 0
-83 128 -51 0
83 -128 -51 0
52 42 32 0
-52 -42 32 0
-52 42 -32 0
52 -42 -32 0
-92 48 63 0
92 -48 63 0
92 48 -63 0
-92 -48 -63 0
90 124 102 0
-90 -124 102 0
-90 124 -102 0
90 -124 -102 0
110 72 40 0
-110 -72 40 0
-110 72 -40 0
110 -72 -40 0
95 59 86 0
-95 -59 86 0
-95 59 -86 0
95 -59 -86 0
101 127 87 0
-101 -127 87 0
-101 127 -87 0
101 -127 -87 0
127 30 23 0
-127 -30 23 0
-127 30 -23 0
127 -30 -23 0
33 47 35 0
-33 -47 35 0
-33 47 -35 0
33 -47 -35 0
-6 30 76 0
6 -30 76 0
6 30 -76 0
-6 -30 -76 0
-14 83 70 0
14 -83 70 0
14 83 -70 0
-14 -83 -70 0
-54 68 119 0
54 -68 119 0
54 68 -119 0
-54 -68 -119 0
103 104 49 0
-103 -104 49 0
-103 104 -49 0
103 -104 -49 0
105 104 55 0
-105 -104 55 0
-105 104 -55 0
105 -104 -55 0
121 93 67 0
-121 -93 67 0
-121 93 -67 0
121 -93 -67 0
96 9 3 0
-96 -9 3 0
-96 9 -3 0
96 -9 -3 0
54 111 37 0
-54 -111 37 0
-54 111 -37 0
54 -111 -37 0
-114 36 123 0
114 -36 123 0
114 36 -123 0
-114 -36 -123 0
-28 94 48 0
28 -94 48 0
28 94 -48 0
-28 -94 -48 0
-112 12 124 0
112 -12 124 0
112 12 -124 0
-112 -12 -124 0
122 31 73 0
-122 -31 73 0
-122 31 -73 0
122 -31 -73 0
119 60 108 0
-119 -60 108 0
-119 60 -108 0
119 -60 -108 0
-15 22 5 0
15 -22 5 0
15 22 -5 0
-15 -22 -5 0
-74 37 14 0
74 -37 14 0
74 37 -14 0
-74 -37 -14 0
-61 23 31 0
61 -23 31 0
61 23 -31 0
-61 -23 -31 0
60 78 102 0
-60 -78 102 0
-60 78 -102 0
60 -78 -102 0
125 88 79 0
-125 -88 79 0
-125 88 -79 0
125 -88 -79 0
69 89 128 0
-69 -89 128 0
-69 89 -128 0
69 -89 -128 0
-11 19 26 0
11 -19 26 0
11 19 -26 0
-11 -19 -26 0
-38 62 53 0
38 -62 53 0
38 62 -53 0
-38 -62 -53 0
52 80 76 0
-52 -80 76 0
-52 80 -76 0
52 -80 -76 0
-36 120 58 0
36 -120 58 0
36 120 -58 0
-36 -120 -58 0
-18 78 58 0
18 -78 58 0
18 78 -58 0
-18 -78 -58 0
-70 98 12 0
70 -98 12 0
70 98 -12 0
-70 -98 -12 0
66 97 110 0
-66 -97 110 0
-66 97 -110 0
66 -97 -110 0
14 64 126 0
-14 -64 126 0
-14 64 -126 0
14 -64 -126 0
-107 94 3 0
107 -94 3 0
107 94 -3 0
-107 -94 -3 0
-62 117 121 0
62 -117 121 0
62 117 -121 0
-62 -117 -121 0
84 4 117 0
-84 -4 117 0
-84 4 -117 0
84 -4 -117 0
99 8 13 0
-99 -8 13 0
-99 8 -13 0
99 -8 -13 0
21 32 123 0
-21 -32 123 0
-21 32 -123 0
21 -32 -123 0
98 67 34 0
-98 -67 34 0
-98 67 -34 0
98 -67 -34 0
-99 120 115 0
99 -120 115 0
99 120 -115 0
-99 -120 -115 0
-90 15 24 0
90 -15 24 0
90 15 -24 0
-90 -15 -24 0
72 38 65 0
-72 -38 65 0
-72 38 -65 0
72 -38 -65 0
-5 106 11 0
5 -106 11 0
5 106 -11 0
-5 -106 -11 0
-75 111 87 0
75 -111 87 0
75 111 -87 0
-75 -111 -87 0
92 29 50 0
-92 -29 50 0
-92 29 -50 0
92 -29 -50 0
89 6 50 0
-89 -6 50 0
-89 6 -50 0
89 -6 -50 0
-59 29 28 0
59 -29 28 0
59 29 -28 0
-59 -29 -28 0
66 93 116 0
-66 -93 116 0
-66 93 -116 0
66 -93 -116 0
-46 21 75 0
46 -21 75 0
46 21 -75 0
-46 -21 -75 0
-84 51 27 0
84 -51 27 0
84 51 -27 0
-84 -51 -27 0
25 109 55 0
-25 -109 55 0
-25 109 -55 0
25 -109 -55 0
-33 101 18 0
33 -101 18 0
33 101 -18 0
-33 -101 -18 0
-9 2 69 0
9 -2 69 0
9 2 -69 0
-9 -2 -69 0
96 8 122 0
-96 -8 122 0
-96 8 -122 0
96 -8 -122 0
-49 108 22 0
49 -108 22 0
49 108 -22 0
-49 -108 -22 0
-20 16 109 0
20 -16 109 0
20 16 -109 0
-20 -16 -109 0
7 86 91 0
-7 -86 91 0
-7 86 -91 0
7 -86 -91 0
-56 116 71 0
56 -116 71 0
56 116 -71 0
-56 -116 -71 0
100 10 13 0
-100 -10 13 0
-100 10 -13 0
100 -10 -13 0
-106 39 82 0
106 -39 82 0
106 39 -82 0
-106 -39 -82 0
-61 1 17 0
61 -1 17 0
61 1 -17 0
-61 -1 -17 0
-35 77 81 0
35 -77 81 0
35 77 -81 0
-35 -77 -81 0
125 74 27 0
-125 -74 27 0
-125 74 -27 0
125 -74 -27 0
47 46 103 0
-47 -46 103 0
-47 46 -103 0
47 -46 -103 0
105 88 114 0
-105 -88 114 0
-105 88 -114 0
105 -88 -114 0
42 41 2 0
-42 -41 2 0
-42 41 -2 0
42 -41 -2 0
25 91 79 0
-25 -91 79 0
-25 91 -79 0
25 -91 -79 0
26 82 4 0
-26 -82 4 0
-26 82 -4 0
26 -82 -4 0
