p cnf 32 138
29 19 5 0
27 3 -19 0
18 -17 -19 0
-17 -23 3 0
-16 20 24 0
-14 -25 -27 0
-31 -5 -6 0
3 6 5 0
21 30 12 0
-24 21 -3 0
-31 -23 -16 0
5 -21 -9 0
15 -26 -2 0
-32 -11 -23 0
-2 9 15 0
-7 4 6 0
-6 27 -23 0
14 4 -12 0
1 -25 -31 0
11 -24 28 0
21 30 -2 0
2 -31 -22 0
-13 21 -28 0
27 -31 19 0
2 29 17 0
-31 8 17 0
14 -26 11 0
28 24 -16 0
18 -19 -1 0
30 5 9 0
-2 1 18 0
13 -9 -15 0
-3 2 -26 0
28 -8 -20 0
-17 -22 20 0
27 -18 16 0
4 -22 -11 0
31 -14 -24 0
-8 -11 -15 0
-15 30 -13 0
-9 -8 26 0
18 -25 2 0
4 -15 13 0
21 -7 26 0
-6 -2 24 0
-5 -28 10 0
-22 9 26 0
-23 -9 -19 0
-26 8 -1 0
18 5 9 0
-8 5 -15 0
10 -12 -28 0
-15 23 -14 0
-13 21 31 0
-8 -25 -14 0
25 29 16 0
6 4 -11 0
-18 17 6 0
5 -6 4 0
5 24 31 0
-3 -29 -28 0
18 -26 -12 0
30 4 29 0
-30 -8 -14 0
14 -13 24 0
-26 -10 3 0
-6 -17 21 0
-2 -1 5 0
-12 4 26 0
29 1 -25 0
-10 -7 11 0
-8 1 27 0
12 21 -31 0
27 -9 29 0
5 27 22 0
26 -7 -10 0
6 -14 28 0
-29 32 -27 0
26 29 -8 0
-18 -4 1 0
-12 -15 -14 0
-2 -4 29 0
6 4 -10 0
10 5 3 0
-2 -6 -12 0
-10 -29 -23 0
-13 -21 23 0
25 -3 31 0
31 -2 26 0
-23 -10 -11 0
2 -30 -3 0
-17 -18 20 0
10 3 -19 0
-4 3 31 0
-10 -32 -29 0
-24 -20 -7 0
20 11 -31 0
-28 -15 31 0
7 -9 -14 0
-9 11 -26 0
-20 -7 24 0
-25 32 -20 0
5 -14 26 0
12 -20 3 0
-16 24 -14 0
-1 -13 -4 0
30 32 23 0
-6 -1 -23 0
16 21 23 0
-9 -28 -6 0
-15 21 -31 0
-22 10 -12 0
-16 -27 19 0
25 1 26 0
-10 -29 28 0
-15 -19 29 0
9 14 10 0
22 -20 -32 0
9 13 -2 0
-28 -14 -4 0
30 -18 16 0
-16 5 2 0
30 10 22 0
27 1 28 0
25 -9 -7 0
-10 5 -24 0
28 20 -19 0
6 5 16 0
26 -28 30 0
6 22 8 0
19 -4 -7 0
18 30 -20 0
-4 -12 -20 0
-24 16 -8 0
4 -31 -6 0
32 -28 -18 0
-26 9 29 0
2 -4 -14 0
