c Uniform planted family; verification certificate stored separately
p cnf 128 550
58 61 31 0
-36 83 -51 0
38 128 20 0
-117 95 -71 0
-76 40 -101 0
112 104 -8 0
-56 51 -14 0
-10 66 68 0
-48 111 53 0
-77 104 115 0
-9 -112 -86 0
-127 -1 -122 0
-108 10 -102 0
58 -124 6 0
-67 -56 2 0
-101 12 -85 0
35 -56 12 0
29 -114 -109 0
-101 71 -42 0
112 21 -45 0
65 71 31 0
72 39 -93 0
-83 -54 74 0
50 19 86 0
-78 114 -60 0
18 28 48 0
54 -48 -103 0
16 76 -44 0
54 84 73 0
63 -106 -102 0
-16 60 125 0
-83 -73 -26 0
-124 -75 73 0
-103 -31 -44 0
47 73 121 0
19 -104 25 0
-103 -52 -106 0
10 -20 -67 0
-127 107 -113 0
-83 95 110 0
48 -88 -126 0
75 54 -85 0
-82 50 33 0
11 85 -120 0
-28 113 50 0
106 112 -70 0
-40 -125 18 0
-64 62 -77 0
-8 -28 63 0
91 105 -116 0
60 -59 -117 0
98 -7 -1 0
100 -63 -36 0
-15 -69 126 0
-120 -9 -110 0
-46 97 59 0
32 103 55 0
23 94 110 0
53 22 99 0
121 52 48 0
88 109 -47 0
85 127 -98 0
-49 -112 60 0
-55 -64 -126 0
-119 -5 -103 0
-27 -1 82 0
-100 43 49 0
-127 40 -98 0
65 -77 128 0
-58 -35 -119 0
-75 -23 -19 0
19 -102 122 0
90 -97 8 0
-67 -68 63 0
7 -26 -11 0
-94 -17 42 0
105 -47 -49 0
95 -93 4 0
52 -29 -1 0
-51 -122 -30 0
-65 -97 -103 0
120 105 -8 0
-52 -9 -61 0
-43 110 63 0
86 30 -109 0
-110 -66 95 0
61 -36 -88 0
23 -87 57 0
-21 67 49 0
-86 -119 -108 0
1 42 -96 0
97 53 47 0
1 -44 126 0
-118 -128 60 0
104 41 -108 0
-54 -24 10 0
-110 -16 30 0
63 -95 -73 0
-126 51 -95 0
-58 93 -34 0
-71 -119 58 0
-44 -69 -12 0
115 -97 -85 0
-22 -85 112 0
-51 82 48 0
-103 52 -120 0
32 88 -111 0
-106 -4 -101 0
84 14 32 0
-103 -117 51 0
-49 91 -17 0
34 64 15 0
30 108 -111 0
-17 91 68 0
87 70 86 0
94 31 125 0
-1 36 55 0
125 41 93 0
55 11 97 0
36 -119 -30 0
-50 -86 21 0
41 -113 32 0
123 10 -14 0
-54 -94 41 0
79 -46 -61 0
-118 -98 -38 0
53 -78 10 0
-64 100 -23 0
63 104 98 0
83 114 75 0
-122 -16 -73 0
-100 -42 99 0
-128 -96 -122 0
-84 79 25 0
-25 -55 19 0
93 -75 -29 0
7 69 10 0
15 21 43 0
-32 126 -93 0
100 -12 -99 0
-111 -105 -50 0
66 82 -87 0
-109 -61 -111 0
66 120 -102 0
-100 84 -21 0
-116 36 -45 0
52 -28 -31 0
-21 -37 26 0
-6 -119 -83 0
-116 -5 -108 0
-6 -73 -113 0
-39 35 -1 0
-125 -99 51 0
86 52 65 0
33 -87 -117 0
127 96 85 0
-103 -38 -39 0
-63 -31 68 0
60 59 -1 0
-101 20 123 0
70 -13 -60 0
-119 -63 -2 0
26 -5 50 0
-93 -85 128 0
2 94 -111 0
-58 64 38 0
75 32 -107 0
37 75 -12 0
-122 100 -96 0
-19 -115 2 0
39 79 -106 0
-50 -117 -103 0
-73 -118 -19 0
65 -100 -69 0
85 105 61 0
114 63 -71 0
17 77 -53 0
-32 -29 -112 0
120 80 124 0
68 -105 -69 0
5 -114 -125 0
100 48 103 0
41 -21 -124 0
50 -116 74 0
26 60 -46 0
82 83 41 0
-15 27 43 0
-78 -124 1 0
-24 -88 106 0
33 109 90 0
-77 71 -102 0
-95 -14 80 0
7 41 68 0
-115 11 -84 0
-5 -105 37 0
110 -87 96 0
-8 -48 56 0
-72 71 106 0
-112 -32 -1 0
-21 -82 68 0
14 -22 -109 0
48 116 56 0
-11 58 -14 0
-46 -58 65 0
70 -38 -115 0
60 52 110 0
12 109 43 0
53 -80 -121 0
-99 -82 96 0
92 79 -47 0
41 -50 88 0
67 125 43 0
30 109 -55 0
77 45 -24 0
-57 12 47 0
-120 28 22 0
44 -106 109 0
127 -79 59 0
-55 30 61 0
113 -31 10 0
-24 -29 114 0
25 43 -119 0
24 75 -115 0
47 26 -8 0
95 40 92 0
-84 97 -40 0
-48 71 57 0
81 92 46 0
24 17 33 0
59 -25 -94 0
-109 84 -30 0
-101 -126 -11 0
-34 -107 -17 0
-79 -121 -93 0
61 -96 64 0
-21 -25 115 0
94 -125 -20 0
-76 -104 -23 0
-108 -3 -127 0
-35 -87 -93 0
-113 102 77 0
-40 -88 22 0
-3 -24 39 0
-12 113 -119 0
12 -93 -28 0
118 -1 -114 0
-24 53 -45 0
-51 -110 41 0
-20 94 11 0
-85 76 -84 0
-30 -57 -20 0
104 8 62 0
-50 -117 110 0
66 9 -101 0
115 22 -123 0
-93 -34 -108 0
-64 -32 -21 0
-64 38 71 0
-126 118 15 0
5 32 -78 0
83 -46 -47 0
-38 -79 107 0
-88 -69 82 0
82 -45 39 0
17 23 19 0
61 -66 59 0
-81 102 -119 0
51 61 -31 0
-78 -98 -5 0
-5 42 89 0
-21 -127 117 0
-84 82 113 0
18 39 120 0
-60 51 -29 0
-63 -2 -34 0
-101 -99 -52 0
-108 21 117 0
67 -9 54 0
-57 109 -89 0
-70 45 -73 0
37 -18 -35 0
-110 117 -37 0
-73 49 2 0
-113 -100 -92 0
97 -34 -72 0
42 53 -43 0
9 -62 -74 0
67 -69 68 0
43 -63 42 0
1 87 41 0
110 -74 -60 0
-19 50 87 0
-89 -35 -61 0
-4 109 -78 0
-70 -15 18 0
98 -17 53 0
47 -1 -118 0
-10 -114 -117 0
-20 42 -31 0
-110 82 66 0
26 -107 64 0
45 -23 99 0
18 -76 -75 0
-63 -119 -53 0
-26 -81 -65 0
16 -33 39 0
-24 42 124 0
-120 123 20 0
18 -47 -52 0
-83 86 109 0
-86 -42 -88 0
-60 67 -118 0
41 -114 21 0
-97 -108 110 0
18 -112 -1 0
50 -44 -72 0
86 -32 90 0
101 88 -95 0
-74 -5 119 0
-72 70 -42 0
58 56 31 0
15 -100 110 0
-55 102 65 0
-65 -36 125 0
-95 -17 2 0
103 117 31 0
-118 -39 -128 0
-7 -21 -116 0
53 -10 -102 0
-123 -31 53 0
6 71 -104 0
-89 119 79 0
82 -60 69 0
-74 65 123 0
37 99 -40 0
72 33 40 0
108 -85 -60 0
8 42 50 0
-26 -73 -21 0
-53 1 63 0
89 -12 128 0
118 66 -78 0
14 -18 85 0
20 121 -92 0
16 -15 50 0
-127 -38 -104 0
32 28 127 0
-23 -128 -125 0
15 -44 -54 0
121 -89 -65 0
108 20 -14 0
-1 -109 -6 0
103 -76 -6 0
19 -15 -75 0
13 -92 -127 0
128 89 -21 0
47 -22 116 0
-32 31 -42 0
90 77 -108 0
81 47 85 0
-114 -128 81 0
-28 43 -92 0
-83 -55 27 0
-82 56 -118 0
29 82 -107 0
-64 128 -79 0
-111 32 47 0
-111 -44 62 0
12 92 123 0
85 74 -92 0
-18 -81 -96 0
-36 71 -79 0
116 31 -32 0
-44 -81 -4 0
-71 50 79 0
-68 9 34 0
124 -69 103 0
-127 62 -6 0
117 50 51 0
-98 71 -4 0
-105 102 45 0
-37 6 -53 0
-72 2 106 0
89 -3 -116 0
-20 -48 101 0
13 32 102 0
85 81 64 0
42 -61 85 0
53 117 -29 0
123 -114 41 0
83 107 -39 0
-41 79 80 0
65 -69 40 0
98 4 -73 0
-127 -26 -17 0
-101 36 41 0
18 -26 71 0
29 102 -34 0
-64 -62 -55 0
-91 -18 54 0
-51 61 59 0
-75 2 13 0
-13 128 53 0
30 -81 -41 0
-116 -69 -83 0
104 -101 32 0
100 -6 -118 0
41 49 -98 0
-102 -107 -23 0
3 87 100 0
-32 79 107 0
2 -40 -34 0
-44 97 123 0
126 -94 -40 0
-101 128 -16 0
-7 24 -88 0
-83 -121 -6 0
113 60 45 0
-95 41 -37 0
19 -43 69 0
-54 32 -45 0
49 -76 22 0
-126 -28 60 0
61 107 62 0
-74 59 115 0
104 -57 100 0
20 70 -55 0
-3 -122 -62 0
-65 -121 -17 0
-119 -22 -72 0
2 -97 48 0
-49 97 -124 0
15 66 17 0
-76 -57 106 0
127 -44 105 0
-8 95 -89 0
27 -125 -70 0
-64 -98 125 0
-61 -128 121 0
-109 95 -29 0
55 -106 69 0
100 -29 -9 0
-57 15 91 0
-79 30 31 0
-93 -116 118 0
-80 -76 -43 0
101 -9 -18 0
-106 104 112 0
37 15 -3 0
32 -120 -123 0
38 -93 -4 0
3 105 95 0
19 77 -128 0
101 -5 69 0
-20 -69 -5 0
42 54 56 0
-119 -34 58 0
-116 72 -66 0
106 -79 -39 0
-127 40 83 0
12 -24 -71 0
-77 30 -124 0
20 101 -24 0
109 4 -7 0
126 -18 106 0
-4 -91 22 0
94 121 97 0
-71 32 -33 0
-124 -62 66 0
-105 -97 -93 0
-78 119 -123 0
-32 54 8 0
114 71 32 0
-27 26 58 0
-47 79 -31 0
-3 26 -64 0
-45 94 -69 0
-97 -39 35 0
-3 -47 14 0
128 102 97 0
-36 124 -113 0
-78 -43 38 0
-23 -21 -84 0
40 -8 -107 0
104 -128 9 0
52 88 115 0
19 -17 72 0
-62 -103 112 0
-94 52 -84 0
48 55 28 0
-32 -56 79 0
55 -85 -75 0
24 -87 18 0
-41 105 126 0
18 101 12 0
-17 6 75 0
-111 93 99 0
27 -41 78 0
70 79 -125 0
60 -116 27 0
70 -120 -74 0
38 97 -39 0
-77 -51 33 0
-79 -14 3 0
120 -53 -88 0
103 -40 -111 0
106 -2 -62 0
-79 71 57 0
-126 -24 -87 0
58 32 -108 0
-93 67 -57 0
-20 -37 -27 0
-30 123 -24 0
56 50 70 0
-1 80 -79 0
69 -51 21 0
109 68 44 0
-114 35 90 0
-1 66 25 0
-107 -22 -101 0
66 96 -80 0
63 52 -30 0
-25 -125 16 0
-66 -54 12 0
26 -36 -94 0
52 32 -74 0
65 44 -75 0
124 -58 -36 0
64 -112 29 0
64 113 16 0
-123 -124 -60 0
90 -83 4 0
-118 -113 33 0
-94 -11 103 0
98 -122 116 0
6 -2 -49 0
121 -36 -48 0
-81 -22 -46 0
88 109 -4 0
-54 16 90 0
104 99 -60 0
106 97 -24 0
20 109 114 0
-82 80 13 0
-35 42 -71 0
-57 -123 -58 0
-87 29 27 0
105 90 46 0
-92 -36 -32 0
-95 -52 124 0
