p cnf 20 56
3 4 -12 0
3 -4 12 0
-3 4 12 0
-3 -4 -12 0
19 18 11 0
19 -18 -11 0
-19 18 -11 0
-19 -18 11 0
5 16 -9 0
5 -16 9 0
-5 16 9 0
-5 -16 -9 0
5 18 -12 0
5 -18 12 0
-5 18 12 0
-5 -18 -12 0
4 17 2 0
4 -17 -2 0
-4 17 -2 0
-4 -17 2 0
14 6 16 0
14 -6 -16 0
-14 6 -16 0
-14 -6 16 0
3 1 -10 0
3 -1 10 0
-3 1 10 0
-3 -1 -10 0
9 1 -14 0
9 -1 14 0
-9 1 14 0
-9 -1 -14 0
11 17 16 0
11 -17 -16 0
-11 17 -16 0
-11 -17 16 0
15 13 10 0
15 -13 -10 0
-15 13 -10 0
-15 -13 10 0
6 7 -8 0
6 -7 8 0
-6 7 8 0
-6 -7 -8 0
13 7 -19 0
13 -7 19 0
-13 7 19 0
-13 -7 -19 0
20 13 -15 0
20 -13 15 0
-20 13 15 0
-20 -13 -15 0
8 2 20 0
8 -2 -20 0
-8 2 -20 0
-8 -2 20 0
