p cnf 20 86
17 8 -19 0
-11 -6 -13 0
4 6 7 0
-18 -3 -14 0
-19 -3 5 0
15 -3 -9 0
14 17 -18 0
-19 -15 1 0
20 -7 4 0
9 -10 -8 0
20 15 -17 0
-16 -20 7 0
-4 5 -8 0
-2 -6 13 0
-3 -4 5 0
16 -1 -19 0
-12 7 -20 0
8 16 10 0
-15 10 -12 0
6 -12 -5 0
-9 5 10 0
-16 -14 4 0
-2 12 -17 0
-4 6 -18 0
-2 -11 3 0
17 -12 11 0
-16 6 -8 0
-17 -18 -20 0
-2 -3 -14 0
20 -9 14 0
9 -14 -3 0
15 -13 12 0
5 -7 20 0
-20 12 -14 0
-5 -14 -19 0
16 8 -4 0
-12 10 5 0
-20 8 7 0
6 -13 20 0
17 14 -7 0
4 -13 -6 0
-15 7 14 0
3 19 -20 0
-11 1 -14 0
-6 -10 -5 0
-16 -9 19 0
12 8 -9 0
-1 -14 -8 0
-16 3 -7 0
-1 -2 -13 0
10 8 18 0
-8 -12 4 0
-19 14 20 0
11 -19 17 0
3 15 4 0
-1 17 10 0
11 15 -10 0
-2 -15 12 0
-2 -5 6 0
-10 -17 -5 0
-18 14 5 0
8 -15 5 0
15 7 -17 0
4 11 2 0
-15 -7 -19 0
11 -2 -7 0
-5 19 1 0
-16 -1 5 0
-3 2 -20 0
12 2 -13 0
-12 -6 20 0
-12 -3 -11 0
-11 -17 -16 0
1 7 -19 0
19 12 -8 0
14 -18 7 0
-16 3 -1 0
3 17 14 0
17 5 -3 0
9 -8 -13 0
13 -7 20 0
-12 5 -16 0
-16 -2 -20 0
11 14 10 0
-2 -8 -13 0
-12 6 -4 0
