p cnf 26 112
-6 19 -24 0
15 18 12 0
19 10 -3 0
-23 -5 1 0
-23 3 -17 0
23 -9 18 0
4 -22 -8 0
15 -7 13 0
-12 26 -22 0
-9 7 11 0
-17 25 -14 0
-18 17 -8 0
16 -13 -15 0
25 7 -3 0
14 8 13 0
-9 15 -26 0
-17 19 -21 0
-20 -13 23 0
-13 -4 -20 0
26 5 -12 0
-14 -15 3 0
-19 -2 13 0
-25 15 -21 0
26 3 -16 0
-22 -26 21 0
4 13 -19 0
-11 23 4 0
7 -22 6 0
1 15 5 0
-19 7 6 0
-22 -3 18 0
13 26 -3 0
-13 8 -11 0
-23 22 -20 0
-23 -8 -7 0
6 -9 5 0
-19 10 3 0
-11 5 23 0
-26 10 6 0
-14 -3 18 0
-6 20 3 0
8 -11 15 0
-25 -5 18 0
-20 21 5 0
-12 10 23 0
21 -18 12 0
-15 13 11 0
4 -10 22 0
14 -5 -17 0
9 -7 -3 0
-6 20 14 0
11 10 6 0
2 -3 -26 0
-24 -19 1 0
-6 18 -7 0
14 -1 -5 0
2 12 -11 0
-4 -25 15 0
-8 22 2 0
17 -9 -21 0
-4 -26 15 0
-10 -25 -8 0
10 -4 12 0
13 -22 23 0
3 1 -11 0
-21 -4 -3 0
-12 -4 11 0
-11 -25 7 0
25 18 2 0
1 16 -11 0
19 -26 14 0
14 20 -19 0
3 -19 20 0
-7 -13 -25 0
-19 -22 -6 0
11 1 -23 0
-21 4 24 0
-15 16 -26 0
-21 14 12 0
6 -12 23 0
26 -19 -14 0
1 26 22 0
2 -1 -10 0
-8 11 -12 0
4 7 -14 0
14 22 -1 0
18 22 17 0
22 -7 17 0
-6 9 3 0
24 17 19 0
-12 4 5 0
6 -16 24 0
-22 -2 14 0
14 3 15 0
15 8 13 0
22 -3 19 0
18 14 -2 0
11 -2 -13 0
24 -26 -5 0
9 7 26 0
8 24 -16 0
-5 -1 3 0
-3 -2 -8 0
17 16 24 0
24 -6 4 0
17 21 3 0
18 -13 -15 0
3 12 -1 0
1 -8 -14 0
24 21 5 0
17 19 13 0
-2 5 17 0
