p cnf 14 60
-4 12 -9 0
12 6 4 0
-10 9 1 0
-14 11 -2 0
-8 -5 7 0
-9 -2 14 0
-14 -5 13 0
11 -5 10 0
5 4 12 0
5 -2 -7 0
-13 -4 -7 0
-7 -2 -1 0
-10 8 9 0
-10 1 14 0
14 -5 -2 0
-1 2 11 0
-14 12 -8 0
11 -5 -7 0
4 13 8 0
-12 -9 8 0
13 6 10 0
-9 1 8 0
-7 -4 14 0
-5 4 -13 0
12 3 11 0
3 -2 -7 0
-10 12 -1 0
-5 -3 8 0
9 1 11 0
7 4 5 0
-2 -14 -10 0
3 5 -10 0
8 -4 -10 0
3 8 -6 0
11 -13 -1 0
-9 14 -7 0
11 -5 6 0
-8 2 10 0
-11 -10 7 0
-1 -7 -12 0
-1 -8 -13 0
-9 -1 -4 0
-4 5 12 0
-14 1 5 0
-7 4 2 0
12 3 -11 0
3 13 -14 0
-1 -4 -11 0
10 8 4 0
10 -14 2 0
-2 -7 -8 0
4 3 11 0
-4 11 3 0
12 -3 -5 0
-14 12 -2 0
-8 5 14 0
-2 13 -8 0
4 12 -13 0
6 -4 -10 0
12 -7 4 0
