p cnf 26 112
19 11 -10 0
-1 6 -2 0
3 -13 25 0
-18 -16 -19 0
-6 24 -11 0
-26 -22 11 0
-26 -22 -6 0
19 -11 -3 0
-10 15 25 0
-19 12 -25 0
22 15 -7 0
-26 3 11 0
-19 26 -13 0
-26 -9 -21 0
19 24 23 0
-24 3 25 0
23 12 -8 0
7 -13 -25 0
1 -2 9 0
-23 3 -16 0
-22 -24 21 0
-5 -12 18 0
22 -13 -25 0
9 -22 24 0
24 -15 21 0
-20 -23 2 0
-24 -9 2 0
25 -5 -13 0
-20 15 1 0
-10 2 3 0
13 -7 -20 0
26 25 -1 0
19 9 6 0
21 17 11 0
-1 5 -16 0
-19 8 -16 0
25 3 -1 0
-23 -25 26 0
19 21 25 0
17 -11 -26 0
-6 2 21 0
-9 12 24 0
14 -17 19 0
3 -18 -7 0
-22 2 20 0
-14 -21 -16 0
24 26 17 0
-15 8 -20 0
15 -5 17 0
-10 12 -11 0
-19 7 -9 0
13 12 -1 0
-23 -10 -5 0
6 -12 -3 0
-12 -1 26 0
11 -20 26 0
21 -17 12 0
3 8 10 0
-9 2 -11 0
3 -22 -9 0
-26 -22 21 0
7 -9 -3 0
-15 -20 2 0
20 -16 -12 0
23 8 18 0
-2 -11 25 0
17 26 -12 0
20 -25 16 0
1 -12 -7 0
9 -5 -1 0
-16 7 21 0
-15 -25 11 0
22 21 4 0
2 -10 18 0
15 22 18 0
17 -22 -9 0
12 19 17 0
-18 -26 -25 0
-5 -16 -18 0
-26 10 25 0
13 6 -7 0
15 -2 -5 0
5 7 23 0
-21 -26 -17 0
4 1 -13 0
-22 -12 -8 0
11 -2 -17 0
-1 -19 -4 0
12 -13 -7 0
5 19 -12 0
-16 -10 -19 0
-19 -25 -12 0
14 -1 23 0
-2 -18 13 0
2 -20 4 0
4 20 -8 0
7 19 24 0
2 19 26 0
-20 2 8 0
1 26 24 0
22 -2 -7 0
25 -23 -16 0
-18 -20 9 0
3 13 9 0
-8 -1 -16 0
14 23 5 0
-17 -14 -20 0
-10 23 26 0
5 -13 -21 0
16 20 23 0
-10 2 3 0
13 17 1 0
