p cnf 20 56
6 17 -11 0
6 -17 11 0
-6 17 11 0
-6 -17 -11 0
12 11 13 0
12 -11 -13 0
-12 11 -13 0
-12 -11 13 0
16 5 -3 0
16 -5 3 0
-16 5 3 0
-16 -5 -3 0
7 20 4 0
7 -20 -4 0
-7 20 -4 0
-7 -20 4 0
5 14 6 0
5 -14 -6 0
-5 14 -6 0
-5 -14 6 0
12 19 2 0
12 -19 -2 0
-12 19 -2 0
-12 -19 2 0
15 14 10 0
15 -14 -10 0
-15 14 -10 0
-15 -14 10 0
20 1 -17 0
20 -1 17 0
-20 1 17 0
-20 -1 -17 0
13 2 1 0
13 -2 -1 0
-13 2 -1 0
-13 -2 1 0
16 7 -18 0
16 -7 18 0
-16 7 18 0
-16 -7 -18 0
9 3 5 0
9 -3 -5 0
-9 3 -5 0
-9 -3 5 0
18 8 -9 0
18 -8 9 0
-18 8 9 0
-18 -8 -9 0
8 15 -10 0
8 -15 10 0
-8 15 10 0
-8 -15 -10 0
8 4 19 0
8 -4 -19 0
-8 4 -19 0
-8 -4 19 0
