c Conventional planted SAT; verification witness stored separately
p cnf 800 3440
-633 -384 -451 0
-158 -764 -774 0
-415 -56 -597 0
-423 -95 -211 0
-68 -678 703 0
-276 -465 -472 0
-471 594 10 0
-568 -790 -347 0
-679 -680 531 0
-320 -614 -617 0
-77 550 -465 0
152 572 254 0
7 160 487 0
-292 -378 71 0
-181 -37 499 0
-732 115 118 0
64 348 18 0
117 -719 -773 0
-315 778 -460 0
468 -110 255 0
784 -548 -86 0
226 -483 -266 0
-354 793 243 0
-582 -540 690 0
788 106 -499 0
511 624 -327 0
-679 447 -540 0
-662 -141 -119 0
92 -211 759 0
-777 -788 -387 0
-296 212 187 0
681 -128 -393 0
679 -78 -79 0
702 295 731 0
456 -30 -480 0
774 668 -189 0
-448 252 266 0
-547 23 91 0
266 130 234 0
-345 744 159 0
733 761 -760 0
582 680 -418 0
-628 499 552 0
-232 -381 56 0
326 -257 -448 0
-229 -88 -682 0
-642 -291 130 0
-503 -548 -28 0
281 -375 -220 0
404 78 -232 0
-552 760 794 0
-399 554 109 0
-325 -316 501 0
-721 -130 -591 0
49 -714 -84 0
-170 295 -746 0
594 568 -501 0
517 792 -675 0
-372 -182 -330 0
627 707 -223 0
484 339 -330 0
75 -532 -562 0
-156 -531 226 0
360 41 625 0
355 83 -87 0
145 -441 80 0
-140 -298 557 0
441 -259 661 0
726 -393 606 0
-241 620 -278 0
193 -47 685 0
542 135 746 0
-683 -270 -54 0
-356 255 -673 0
-538 561 -396 0
593 225 788 0
312 237 -632 0
-652 -334 547 0
130 -315 749 0
779 711 -672 0
-29 -526 630 0
730 182 460 0
-150 343 513 0
578 -539 182 0
309 756 279 0
517 -261 45 0
658 -223 -682 0
557 -741 -138 0
-502 -663 90 0
446 605 -683 0
-205 -765 380 0
463 -146 -315 0
-370 80 722 0
130 477 -125 0
56 684 -787 0
625 594 446 0
548 30 276 0
117 -316 -364 0
599 -451 296 0
583 -698 -96 0
253 -216 -126 0
-533 83 700 0
-314 -750 243 0
735 778 523 0
758 366 -484 0
-659 448 -149 0
-475 -702 504 0
-319 -434 470 0
792 495 -463 0
-322 315 -626 0
-627 -188 -273 0
-394 -222 425 0
487 550 -650 0
-203 304 707 0
623 -5 435 0
-78 -475 513 0
-451 -742 571 0
-278 -582 -604 0
507 604 7 0
782 120 247 0
650 -59 -211 0
686 -310 666 0
335 351 -694 0
361 -799 52 0
289 -46 265 0
398 -591 624 0
-11 563 528 0
491 -97 730 0
-143 -799 -440 0
-725 -238 685 0
-78 -507 67 0
103 -723 676 0
357 -469 655 0
18 -140 -221 0
-570 -422 676 0
-465 -5 26 0
267 -629 -509 0
-313 -62 -281 0
-550 -182 -256 0
23 -440 168 0
794 -627 453 0
478 724 -782 0
-400 364 225 0
136 532 787 0
396 230 759 0
385 -522 -120 0
-624 -592 190 0
740 -186 -722 0
-186 137 -600 0
-510 -419 659 0
667 382 -92 0
-600 -427 -575 0
285 702 523 0
443 -230 -392 0
438 567 -544 0
-6 -217 -24 0
479 -254 183 0
-597 317 -355 0
-410 -143 -543 0
-244 381 500 0
113 -492 -256 0
-435 541 215 0
-197 -91 -541 0
-782 -170 88 0
586 59 -374 0
-206 -549 -762 0
788 -106 154 0
-168 589 -439 0
702 -220 138 0
-782 303 383 0
-314 -779 -429 0
295 -735 -461 0
-239 -179 -680 0
-606 -725 -62 0
-111 -262 -218 0
111 -757 -632 0
59 -745 -658 0
-263 270 715 0
-83 -485 471 0
-537 185 -69 0
-756 429 -176 0
-270 -64 669 0
-755 413 -538 0
44 637 251 0
512 -714 -95 0
-592 -382 -31 0
-376 199 617 0
-239 -142 -490 0
-291 -219 -277 0
767 10 185 0
484 -322 634 0
612 -437 728 0
-88 380 650 0
-341 -425 -679 0
380 371 -159 0
624 125 -769 0
-358 687 -474 0
-399 -580 -782 0
141 521 -81 0
-136 420 -209 0
-472 427 155 0
-468 -278 432 0
-438 -606 -191 0
-335 -168 -196 0
-96 -450 -649 0
567 -642 -65 0
571 -486 246 0
13 -259 705 0
-398 423 -337 0
646 -121 501 0
651 -132 -468 0
447 662 -773 0
260 -683 154 0
-738 351 500 0
715 -175 -740 0
434 600 612 0
-503 -771 -769 0
-216 678 -782 0
498 216 -47 0
671 63 79 0
653 689 -459 0
181 -597 -107 0
770 -178 142 0
-138 624 -671 0
317 16 -349 0
317 533 420 0
708 749 214 0
383 788 604 0
-761 -173 -409 0
-587 731 -145 0
-588 -645 -783 0
-662 506 -73 0
-510 -771 613 0
-312 501 -644 0
781 -480 630 0
-198 36 336 0
297 -217 -307 0
47 59 -403 0
740 263 712 0
609 -469 -243 0
-169 -83 748 0
-665 -282 -159 0
-617 -734 -637 0
-780 -767 286 0
-365 564 -232 0
-209 -800 -17 0
761 -472 -559 0
707 776 -702 0
393 44 -434 0
745 356 689 0
428 -547 -510 0
-569 179 718 0
10 539 71 0
-486 333 283 0
-349 274 -300 0
269 2 -289 0
182 -241 -679 0
-413 783 673 0
-138 -80 259 0
-279 580 -586 0
369 -366 -496 0
-411 58 -99 0
-22 -119 -335 0
-229 198 -522 0
104 -305 -2 0
798 294 237 0
-616 777 -486 0
-627 -523 99 0
-483 365 48 0
710 542 188 0
174 -589 -431 0
730 447 160 0
744 314 -485 0
-51 -130 345 0
765 -90 125 0
-780 555 -653 0
-468 -522 202 0
-394 386 39 0
491 -689 630 0
464 -283 18 0
27 -800 -179 0
-33 -362 -248 0
212 -469 24 0
65 -244 -254 0
-320 654 -433 0
536 -681 630 0
-605 503 -154 0
-333 437 315 0
600 -91 -642 0
-629 533 -88 0
487 370 379 0
-475 543 414 0
-187 -763 -224 0
-376 -618 665 0
60 547 -216 0
513 -618 -793 0
-530 275 -334 0
-736 -209 222 0
397 732 706 0
606 -282 51 0
-656 384 -492 0
-688 -195 -137 0
-597 2 687 0
48 -625 680 0
-110 367 425 0
-66 -255 -209 0
151 543 -55 0
-138 796 -725 0
-505 -753 52 0
342 577 -154 0
558 453 -486 0
625 -376 377 0
312 400 656 0
-291 558 653 0
-604 372 -489 0
585 -559 -561 0
-172 12 -240 0
347 152 -219 0
-155 -605 203 0
551 -418 -228 0
-389 73 -259 0
401 -745 509 0
-640 -791 33 0
-762 -58 517 0
-609 301 331 0
563 717 316 0
-553 -128 514 0
613 -243 -111 0
326 -415 -224 0
-615 -92 -172 0
-603 -477 -614 0
159 49 -226 0
729 -39 -676 0
768 -459 -343 0
-450 276 23 0
727 200 -488 0
338 236 -744 0
-26 387 263 0
633 222 680 0
-531 -361 -70 0
102 138 57 0
-87 466 322 0
488 -16 -143 0
-762 -121 -495 0
755 -155 -749 0
-177 -292 -309 0
480 567 -223 0
705 -703 -716 0
245 -426 -670 0
769 380 -560 0
-683 246 -262 0
-288 73 665 0
72 238 653 0
-18 -243 760 0
621 -316 -639 0
-155 -548 -700 0
630 -79 -47 0
-233 768 -583 0
-71 -412 -771 0
744 -10 234 0
129 232 -23 0
677 786 554 0
518 -390 370 0
-272 -595 -545 0
362 -248 521 0
530 -207 141 0
127 -74 485 0
205 -141 760 0
6 -268 448 0
499 -318 565 0
213 349 -705 0
451 -636 -407 0
-594 308 -689 0
-388 -285 84 0
-285 344 -626 0
183 -237 -469 0
-289 516 232 0
56 -652 -420 0
-713 -154 59 0
-588 381 -15 0
791 346 14 0
183 41 -593 0
432 614 -593 0
571 175 -132 0
-791 -669 229 0
-493 -290 480 0
-528 -715 97 0
-745 -37 361 0
-442 334 434 0
-701 -563 -249 0
-215 175 684 0
-282 -79 175 0
685 539 63 0
72 787 567 0
733 -180 -2 0
450 -143 -73 0
-345 606 -300 0
428 -292 -596 0
-117 139 630 0
560 -514 97 0
581 -188 -286 0
-503 604 -178 0
-576 -733 304 0
-620 -416 70 0
-235 786 43 0
753 -626 -590 0
-674 373 509 0
222 -284 522 0
-673 -155 446 0
-7 317 420 0
584 -565 -175 0
211 -166 426 0
170 159 567 0
-531 -111 451 0
94 -229 443 0
-555 -69 -515 0
376 618 787 0
-377 -258 -601 0
370 -73 345 0
-563 -769 545 0
727 665 307 0
460 425 -763 0
-533 439 -169 0
406 526 -324 0
-688 611 84 0
-786 -394 -617 0
774 -209 -303 0
721 -341 594 0
265 -672 -767 0
-466 89 -147 0
-696 536 750 0
-518 -759 762 0
444 540 654 0
-265 248 387 0
118 396 322 0
-104 -525 -737 0
-245 367 -327 0
-24 82 -548 0
-444 -646 387 0
-499 -383 -726 0
471 490 651 0
204 185 -659 0
475 613 374 0
130 558 1 0
714 -684 -524 0
-189 174 -373 0
32 168 730 0
479 -601 -130 0
-590 213 -338 0
-376 729 771 0
-162 -505 557 0
-406 702 -740 0
686 -585 -577 0
-192 -67 -730 0
-622 -504 365 0
-470 519 205 0
-554 563 141 0
123 13 -145 0
745 255 -699 0
-222 -64 -799 0
263 -763 -306 0
144 -80 -652 0
-230 -137 669 0
376 360 -462 0
769 92 -194 0
-510 123 75 0
-627 253 -620 0
-439 -624 -108 0
-549 759 385 0
-685 -497 -142 0
-720 -328 -175 0
88 -266 545 0
462 -740 549 0
-242 739 504 0
238 655 372 0
343 79 516 0
-78 -283 560 0
391 377 -720 0
161 -466 -261 0
700 242 382 0
-376 293 375 0
-713 -701 789 0
-615 -161 -579 0
3 -334 713 0
764 153 -93 0
798 -482 72 0
-560 -419 -333 0
77 -57 -795 0
651 677 187 0
-217 615 594 0
-520 -160 353 0
-202 446 546 0
154 -356 659 0
-101 -498 -547 0
649 659 -225 0
-70 617 -777 0
-20 800 -298 0
-306 273 -87 0
345 94 -81 0
-644 588 295 0
-505 -735 776 0
515 701 -651 0
-301 -590 -309 0
-668 342 -445 0
-100 790 -82 0
-255 189 237 0
-333 -658 521 0
-48 -509 -421 0
-619 -733 339 0
264 -716 -511 0
351 472 -739 0
-511 -129 785 0
-487 -369 -490 0
380 -235 362 0
-464 240 560 0
316 767 141 0
-604 -56 -731 0
-484 -662 -276 0
-549 100 -131 0
-695 -373 -576 0
308 573 578 0
785 323 366 0
637 369 -227 0
-589 703 671 0
681 -87 380 0
59 -325 633 0
728 -107 -725 0
-516 -459 -357 0
441 -289 255 0
387 -510 -565 0
-296 -344 254 0
427 425 -280 0
544 -603 154 0
-37 414 210 0
422 -229 61 0
-440 503 -466 0
699 -194 -85 0
-262 -225 -142 0
384 -430 -8 0
171 -272 -323 0
83 227 -780 0
-562 -1 -552 0
602 530 391 0
760 302 -568 0
502 701 -159 0
634 322 -646 0
-450 533 -624 0
654 -689 -340 0
-586 468 -514 0
319 -433 757 0
-165 352 -190 0
-685 -726 272 0
-656 476 -370 0
-686 -194 690 0
788 -522 162 0
656 -775 -672 0
362 -526 -226 0
463 719 -117 0
-117 132 -168 0
207 -336 -174 0
-127 -384 -75 0
-428 61 -211 0
764 456 -422 0
372 -480 550 0
-51 -298 411 0
-165 787 -40 0
278 497 -214 0
192 780 444 0
-203 52 569 0
-8 431 447 0
378 296 -101 0
-348 244 15 0
632 688 124 0
274 418 -254 0
-205 -437 347 0
638 -144 134 0
-384 -72 -624 0
407 -459 -406 0
736 -202 -29 0
-761 -612 -762 0
551 746 -395 0
223 134 786 0
468 201 -594 0
-385 -83 205 0
756 113 -558 0
-799 297 -686 0
-645 -749 733 0
668 503 244 0
-349 -713 -131 0
-687 -697 666 0
690 -202 485 0
-772 -23 -515 0
-468 -460 648 0
93 318 309 0
175 434 140 0
182 348 561 0
202 -212 -712 0
601 -121 -610 0
422 -595 185 0
-395 -24 -4 0
288 -412 642 0
712 59 611 0
577 -202 -365 0
149 47 -498 0
472 99 446 0
482 -260 -359 0
-370 -562 -110 0
-483 312 -364 0
-795 302 565 0
-660 -619 -103 0
157 340 -391 0
12 479 788 0
776 -549 -338 0
401 -308 -9 0
-647 -60 -383 0
-1 -216 789 0
413 410 -319 0
361 -64 -40 0
403 102 705 0
797 -458 320 0
-210 644 -672 0
-337 -453 -342 0
475 145 -455 0
-73 790 410 0
600 399 76 0
241 248 151 0
-246 -28 440 0
292 -548 582 0
-71 -294 598 0
-626 178 -434 0
-658 -570 228 0
71 280 -422 0
-659 37 -532 0
-762 -791 -798 0
14 -214 103 0
-12 449 -662 0
-130 -415 -258 0
-406 51 -441 0
-375 167 622 0
-720 -361 573 0
-585 264 293 0
-793 350 479 0
-139 357 610 0
-464 510 -757 0
104 118 687 0
-295 -535 87 0
-288 574 89 0
-425 -198 191 0
-156 -232 381 0
700 597 662 0
-421 -332 -565 0
-420 664 520 0
-79 -660 -317 0
-621 46 -403 0
79 -312 465 0
379 650 145 0
-706 47 -77 0
-40 -449 144 0
-446 448 -618 0
714 -95 -566 0
-660 -395 -203 0
-32 698 458 0
256 671 -288 0
5 -341 482 0
-605 520 309 0
-217 -175 -266 0
454 133 -509 0
761 -488 -143 0
641 -675 239 0
-23 -776 11 0
218 -515 299 0
-88 292 437 0
491 -327 -717 0
524 -462 528 0
-584 -193 -62 0
-440 -175 -222 0
-530 500 -68 0
-362 180 -388 0
-530 -663 -532 0
-504 -489 -414 0
-283 -87 792 0
-139 -285 -763 0
166 -297 -505 0
461 -346 -166 0
705 107 722 0
120 22 11 0
451 -667 420 0
282 -394 544 0
-778 511 761 0
356 -532 -142 0
141 -374 632 0
611 -525 -631 0
344 -131 771 0
-385 780 703 0
-639 -463 146 0
144 771 335 0
224 -20 -332 0
-64 454 -499 0
-359 430 443 0
-651 -250 646 0
-348 -114 -707 0
-328 -409 109 0
622 653 555 0
733 -5 -592 0
-508 -269 -311 0
241 407 -719 0
-277 218 -429 0
-135 298 -585 0
-474 496 -795 0
557 -243 -551 0
105 -692 689 0
-744 -156 -141 0
-621 660 15 0
265 -175 378 0
515 175 180 0
187 -167 121 0
-575 -40 365 0
690 487 -548 0
130 744 -548 0
-626 38 102 0
103 -363 250 0
426 513 -269 0
-705 -692 -591 0
661 -664 647 0
-374 -522 -535 0
700 -601 -293 0
656 -566 462 0
12 -377 180 0
115 -609 497 0
20 -224 86 0
226 -648 -775 0
-417 -80 -593 0
-149 120 -516 0
-56 471 -673 0
403 -390 -289 0
368 231 203 0
-465 700 -409 0
660 -442 468 0
-335 -242 655 0
-21 -375 -663 0
-720 -651 -71 0
296 187 -563 0
314 -671 324 0
35 396 -359 0
174 -793 645 0
717 104 541 0
-611 462 -422 0
-600 749 -187 0
-756 -615 259 0
430 -517 631 0
91 625 -7 0
695 353 112 0
-132 -743 -34 0
35 304 139 0
416 -310 263 0
763 -3 -393 0
-571 -647 632 0
419 710 787 0
605 -679 521 0
-243 -777 419 0
-498 -418 10 0
386 -48 604 0
309 -30 567 0
175 -473 -779 0
-346 -310 -78 0
577 -514 -683 0
625 -353 248 0
-448 703 677 0
-163 -618 433 0
-584 -760 617 0
783 66 151 0
-745 -3 365 0
-216 -27 -15 0
475 119 -291 0
-81 -349 -699 0
-448 -559 103 0
247 -379 325 0
-421 218 -443 0
-417 -358 -187 0
-151 54 -549 0
-94 549 -568 0
153 -769 -242 0
663 -49 -508 0
479 558 351 0
268 278 -596 0
115 718 -250 0
-754 413 75 0
685 565 242 0
-271 -239 314 0
250 101 383 0
-166 -518 508 0
-420 502 415 0
729 184 167 0
372 500 117 0
213 -607 638 0
608 575 109 0
744 -684 521 0
-451 337 130 0
200 -201 73 0
758 -424 201 0
-283 -676 750 0
-9 275 625 0
554 -615 -551 0
351 -766 -399 0
514 669 -152 0
319 -629 -761 0
-793 207 739 0
-506 143 577 0
-667 728 -469 0
-143 126 753 0
-265 666 457 0
123 745 -751 0
585 68 -678 0
-669 -88 -26 0
479 197 149 0
-702 182 -251 0
-328 -223 378 0
704 329 -100 0
433 -274 308 0
191 407 -21 0
519 -148 684 0
469 60 151 0
163 -476 -709 0
224 625 631 0
493 -474 274 0
-331 251 -650 0
677 774 -600 0
-173 -67 -780 0
382 201 -654 0
241 -313 617 0
343 602 -47 0
-333 671 -783 0
489 -792 -572 0
-274 -21 213 0
-686 124 161 0
-498 -687 -726 0
-116 505 -139 0
-395 717 412 0
577 -669 264 0
45 371 668 0
72 213 219 0
139 -231 89 0
-479 -308 -250 0
-346 463 -322 0
177 -448 488 0
653 715 -546 0
460 691 186 0
-430 51 -431 0
715 -584 796 0
634 -162 -428 0
64 684 -206 0
575 -78 -581 0
21 227 -502 0
477 498 151 0
158 797 546 0
4 -347 262 0
469 483 790 0
780 653 647 0
-647 -579 -656 0
361 -83 -314 0
174 268 141 0
777 -275 -318 0
-408 88 -43 0
-575 -632 -266 0
-83 501 -476 0
-170 -277 -687 0
-72 -231 581 0
-665 684 448 0
-748 -661 -266 0
36 192 -136 0
-119 -18 379 0
-10 476 -581 0
-757 741 422 0
-173 -769 -783 0
483 550 -134 0
-292 -141 -298 0
337 443 281 0
-444 -98 -512 0
605 333 465 0
439 -349 276 0
-108 -776 362 0
-67 112 163 0
-605 -37 -418 0
-716 656 1 0
181 161 -270 0
195 -524 275 0
358 -336 585 0
-393 -495 739 0
524 -530 -620 0
118 767 798 0
150 331 433 0
758 -489 -713 0
-250 317 -351 0
567 -635 325 0
-575 168 781 0
342 -173 491 0
253 118 219 0
-748 339 -202 0
-741 -781 -551 0
-704 663 153 0
164 403 -193 0
439 -530 -165 0
-488 -620 -193 0
-108 752 -717 0
-567 645 558 0
-458 517 683 0
-643 518 -83 0
312 -765 649 0
-662 -672 39 0
542 491 -563 0
424 -682 425 0
-166 -442 616 0
389 397 374 0
274 -244 699 0
-163 -760 690 0
74 -46 569 0
30 129 224 0
682 479 -662 0
-614 385 700 0
209 716 -110 0
-61 739 -375 0
76 -311 -7 0
508 -412 62 0
71 -10 -30 0
69 -44 -661 0
409 223 774 0
-466 299 515 0
-95 -145 252 0
128 633 -177 0
150 17 232 0
-67 -614 -334 0
436 -601 -291 0
-484 456 350 0
38 261 -489 0
452 -414 463 0
-725 67 77 0
258 537 643 0
36 505 -487 0
-289 195 183 0
70 307 651 0
489 -704 -287 0
-67 262 -712 0
-486 256 -454 0
141 227 -42 0
-629 -657 444 0
-490 -201 203 0
633 800 579 0
450 154 -710 0
-28 575 -236 0
-503 -42 -434 0
147 -95 275 0
476 464 -627 0
276 53 36 0
576 -98 -291 0
-22 -399 749 0
605 508 -448 0
196 649 592 0
704 573 251 0
623 116 697 0
799 678 -795 0
683 -372 -469 0
730 221 752 0
358 -111 -635 0
-163 -522 -311 0
-69 -421 225 0
593 -648 -549 0
-589 -41 -524 0
109 279 742 0
22 135 217 0
-71 -754 -210 0
764 332 -455 0
-235 522 -1 0
-76 101 52 0
-180 298 -264 0
245 348 -595 0
-474 -195 -518 0
466 676 592 0
-207 350 64 0
-673 298 218 0
130 716 641 0
393 -551 -598 0
-321 640 -796 0
-294 489 -79 0
232 376 -364 0
740 249 -214 0
-282 -742 -120 0
-589 59 -342 0
300 131 -721 0
-106 -600 734 0
-170 445 716 0
-44 367 658 0
-778 -292 48 0
189 341 688 0
-766 -165 -367 0
-222 -270 80 0
503 143 -80 0
-735 618 377 0
197 -240 -446 0
-508 608 486 0
-429 409 346 0
704 462 15 0
569 798 -148 0
-211 257 -386 0
-591 -490 775 0
129 -761 271 0
-601 194 529 0
64 -588 -11 0
-277 425 -602 0
-522 -573 31 0
-523 244 -85 0
156 -703 -346 0
780 -315 378 0
-488 579 -231 0
456 335 -668 0
-42 482 -291 0
-700 795 207 0
155 419 221 0
-377 117 -586 0
76 243 -719 0
-131 -620 456 0
-539 210 -576 0
352 475 348 0
792 506 -630 0
350 355 506 0
404 -298 -99 0
-708 -182 202 0
400 -421 -762 0
-677 -1 -579 0
-396 626 -553 0
183 -308 180 0
-246 -656 -434 0
2 348 668 0
503 68 704 0
265 -574 -773 0
-461 -171 739 0
-79 -40 -447 0
286 -699 -175 0
134 106 -518 0
-303 -563 770 0
-694 -309 104 0
-344 -397 712 0
-32 -784 -121 0
-185 216 -718 0
569 -175 781 0
357 -613 -260 0
-762 -91 -64 0
-602 -292 -226 0
-515 -773 326 0
476 572 -699 0
613 466 8 0
-296 197 -389 0
-471 655 437 0
11 -5 265 0
-595 -553 -698 0
-431 668 -68 0
-682 560 -296 0
543 -409 243 0
386 -469 791 0
162 -170 -356 0
391 -719 669 0
-781 -521 754 0
-226 -386 -340 0
379 475 -422 0
763 70 564 0
-320 550 -514 0
526 -636 65 0
-248 -350 430 0
294 227 187 0
-400 -251 -265 0
-131 280 -467 0
-375 796 -498 0
-316 -122 718 0
660 -502 649 0
137 -646 191 0
130 615 -482 0
-16 -139 32 0
191 -386 -689 0
-327 384 -658 0
732 -576 -788 0
20 570 250 0
-20 575 -552 0
-660 -28 468 0
-545 -322 134 0
-475 -22 171 0
-118 -790 660 0
-667 136 58 0
-449 52 731 0
624 -187 -57 0
718 -797 524 0
216 681 231 0
10 572 -236 0
755 -334 -506 0
-297 -6 616 0
-389 339 179 0
-187 -669 -750 0
254 -616 52 0
-611 -772 505 0
-763 328 659 0
-342 309 -165 0
723 110 -205 0
199 237 553 0
32 -361 16 0
-680 627 -689 0
86 93 114 0
352 -184 -579 0
-243 662 -417 0
599 -550 79 0
474 -607 -354 0
403 -547 -475 0
-95 319 789 0
-559 755 340 0
-629 -21 96 0
-365 682 100 0
460 60 -34 0
505 -101 -474 0
201 -73 -654 0
362 112 201 0
243 718 -134 0
384 392 700 0
-7 -729 -773 0
407 -492 -558 0
-753 537 453 0
-311 634 -216 0
455 -618 -19 0
-234 -181 -741 0
-759 780 317 0
448 -490 216 0
-181 682 -20 0
-657 -717 697 0
-682 783 -798 0
45 -160 313 0
125 371 -426 0
-765 -109 -68 0
-776 -350 -496 0
-619 744 448 0
276 432 149 0
-415 -381 -299 0
282 -87 -404 0
-625 699 -202 0
-221 325 182 0
333 288 -75 0
48 -290 -72 0
547 -404 158 0
298 -306 -234 0
258 31 -306 0
-34 627 -128 0
-618 -633 -239 0
-100 -716 489 0
-634 102 430 0
724 457 -638 0
-643 -751 -525 0
486 471 744 0
229 -724 166 0
-549 500 179 0
-643 421 77 0
36 360 -749 0
-359 701 -628 0
-276 -641 608 0
721 -423 -153 0
567 229 -748 0
-643 42 -435 0
-53 -282 15 0
-421 -387 223 0
-74 -620 -274 0
-630 217 -484 0
-168 -758 408 0
353 -565 70 0
-354 255 -666 0
103 -337 27 0
42 -160 -385 0
-535 -388 370 0
23 -164 428 0
58 370 676 0
-412 611 434 0
354 163 -327 0
-531 694 206 0
-624 158 -510 0
-631 133 -84 0
509 -366 -744 0
702 306 278 0
-553 -758 -408 0
-362 165 635 0
-93 -144 779 0
-659 -667 102 0
-370 281 -501 0
-308 -172 492 0
-305 680 -632 0
194 -601 686 0
664 799 318 0
278 759 212 0
-800 -541 185 0
-299 -556 339 0
662 562 648 0
724 -650 -568 0
778 -282 -439 0
687 723 -68 0
651 232 -180 0
-555 788 528 0
-282 -33 -637 0
362 -728 796 0
-266 253 148 0
270 188 6 0
-117 701 408 0
344 653 -692 0
-326 -383 568 0
-557 -3 -436 0
290 -407 -571 0
-576 -672 340 0
-50 -327 -791 0
-346 -390 339 0
328 -113 -635 0
689 388 -346 0
736 231 -234 0
588 -655 17 0
-748 -263 -256 0
393 155 282 0
151 -775 363 0
764 -380 634 0
588 120 -172 0
-623 125 228 0
722 -488 297 0
261 -102 -637 0
356 500 -200 0
13 577 209 0
-564 -216 -610 0
503 690 794 0
99 628 -723 0
-201 -596 -572 0
-80 -697 83 0
424 75 662 0
500 -682 -716 0
91 230 -238 0
232 53 147 0
68 -600 -196 0
541 -404 327 0
191 308 582 0
553 -77 210 0
751 -59 663 0
-515 241 -652 0
575 -306 777 0
-138 -96 -793 0
-509 -266 -68 0
-498 -33 352 0
-442 -315 37 0
349 751 -625 0
-51 750 -208 0
-165 -180 666 0
465 185 326 0
107 435 -510 0
-385 -515 -490 0
-280 276 232 0
-479 736 -249 0
46 634 591 0
-493 -268 521 0
-708 738 -312 0
174 -126 35 0
364 -446 -800 0
-461 252 -5 0
530 798 -139 0
163 506 -796 0
-575 589 224 0
737 513 497 0
572 404 -443 0
635 -179 538 0
526 95 -470 0
220 -660 531 0
258 658 -53 0
389 113 737 0
460 233 -502 0
-745 460 29 0
-72 -611 -261 0
-286 -381 -82 0
707 -306 592 0
-198 -692 137 0
393 796 -62 0
239 613 523 0
-435 -459 -125 0
47 786 -203 0
-749 -484 -670 0
-452 260 -543 0
-737 -241 -420 0
681 712 -295 0
602 342 -40 0
547 790 -320 0
-226 -212 517 0
286 -592 -688 0
-465 -770 750 0
638 -335 -396 0
269 407 222 0
-635 436 -595 0
626 -452 477 0
769 471 -37 0
213 -94 -649 0
-569 566 -490 0
-21 -43 614 0
226 695 -487 0
-784 535 603 0
257 -581 653 0
331 685 731 0
117 251 638 0
-163 -44 128 0
-593 -713 575 0
-305 428 414 0
-61 -407 -53 0
-142 331 627 0
336 -575 -173 0
-170 268 -64 0
193 -705 683 0
-537 -775 296 0
83 151 617 0
258 66 -524 0
-165 -162 174 0
623 105 -326 0
349 101 -739 0
-560 443 76 0
-333 -77 242 0
70 -666 -84 0
-28 -494 -593 0
276 -671 -515 0
139 -201 296 0
519 64 188 0
662 696 -228 0
-101 135 232 0
431 -428 227 0
-529 129 279 0
318 572 -125 0
576 -591 -449 0
396 62 275 0
453 -382 -98 0
-327 -659 2 0
418 359 368 0
-80 -344 518 0
624 -465 -790 0
-352 -117 99 0
363 -479 -499 0
237 -410 -34 0
-41 -355 44 0
-797 -534 -21 0
210 -248 -431 0
89 314 -731 0
569 -492 -776 0
227 -264 -182 0
-80 -209 -148 0
-646 -329 -180 0
464 -305 786 0
-181 11 -550 0
-796 216 549 0
564 610 -82 0
-154 -355 -192 0
310 459 95 0
-700 115 -62 0
112 -783 479 0
388 -99 529 0
570 592 433 0
-220 754 716 0
419 -93 752 0
-706 729 293 0
153 -547 771 0
-427 773 190 0
348 98 575 0
290 189 -723 0
-605 293 -685 0
121 149 -799 0
663 190 -321 0
444 -542 607 0
-490 -274 -738 0
-45 -766 -64 0
-12 -180 -640 0
335 -194 -341 0
432 76 786 0
434 -182 332 0
80 266 -504 0
776 -153 -714 0
558 525 -383 0
199 221 774 0
-561 -10 515 0
-341 -58 -4 0
-224 655 -485 0
-194 239 144 0
-174 -407 -282 0
-733 -187 -376 0
-492 -720 632 0
228 -427 -762 0
41 -675 -572 0
-531 250 783 0
36 -707 280 0
-81 -288 -273 0
395 340 84 0
-587 743 -525 0
-516 39 -445 0
-320 -575 329 0
720 747 532 0
682 350 320 0
453 557 -15 0
317 105 680 0
288 520 793 0
77 324 343 0
-431 31 -213 0
-589 -445 -792 0
-131 539 733 0
-88 748 463 0
796 -632 -92 0
17 772 -782 0
-193 -325 -782 0
-604 492 114 0
-124 245 -480 0
-478 151 299 0
-654 653 771 0
403 607 -528 0
794 162 498 0
625 307 408 0
253 83 -179 0
252 790 -159 0
-604 -378 -26 0
-347 103 -369 0
248 126 -324 0
511 270 -160 0
-799 422 755 0
469 -97 203 0
-697 -760 -389 0
-510 484 -477 0
393 -430 -305 0
431 -697 241 0
-315 773 -71 0
548 694 -119 0
-35 -351 -241 0
612 -340 177 0
720 424 -125 0
262 518 655 0
500 -285 626 0
-376 428 -116 0
315 366 -120 0
-358 -756 55 0
56 486 429 0
-750 199 631 0
-639 364 -162 0
-657 418 -559 0
587 721 -536 0
-183 640 163 0
-191 -797 128 0
607 -44 656 0
151 -651 136 0
628 342 177 0
757 -463 -135 0
551 -598 94 0
130 -495 45 0
274 678 751 0
-60 50 1 0
581 -531 -114 0
-629 633 654 0
415 -321 -456 0
-175 188 790 0
-47 214 607 0
255 84 380 0
646 -474 -367 0
-409 -70 568 0
-70 -193 459 0
362 -640 331 0
-137 176 569 0
409 -393 -62 0
680 598 -314 0
458 -396 -233 0
-260 123 -785 0
-430 751 -107 0
-739 78 -512 0
-134 679 684 0
-403 -395 458 0
217 -743 702 0
-499 -181 -607 0
-314 612 -677 0
82 -439 -769 0
-352 525 744 0
-209 -287 672 0
495 -619 48 0
531 -575 -43 0
350 480 -113 0
716 -412 263 0
-615 -257 -410 0
560 -75 -72 0
-83 109 346 0
-515 -504 332 0
220 14 683 0
-337 204 648 0
-601 -516 410 0
-83 -479 -628 0
466 -442 88 0
-489 -734 287 0
682 -213 -94 0
-269 12 -694 0
-794 -678 -343 0
-120 -650 696 0
369 -36 271 0
131 533 164 0
675 -482 721 0
-513 5 -447 0
642 -187 89 0
-391 609 -762 0
-688 -172 -466 0
171 84 -369 0
-599 -495 -68 0
-683 -389 -460 0
-446 -753 -516 0
506 394 33 0
223 417 634 0
-440 106 434 0
-658 465 264 0
484 -795 337 0
-240 185 443 0
-57 273 -228 0
486 348 474 0
215 -114 358 0
-455 602 306 0
-134 485 541 0
472 800 -498 0
-150 -452 88 0
-775 662 -569 0
209 -256 -139 0
652 -464 618 0
727 195 426 0
-217 -10 -794 0
432 575 -148 0
536 492 302 0
-370 271 -710 0
-539 628 151 0
504 455 351 0
-388 765 411 0
-238 251 567 0
-271 667 -213 0
-39 -782 -174 0
-206 749 572 0
-752 -556 -687 0
-208 -257 -646 0
493 325 587 0
-742 800 -563 0
134 -527 -227 0
-683 297 -343 0
46 783 -38 0
-613 765 -701 0
442 -575 -134 0
104 -239 722 0
-510 278 210 0
-388 785 649 0
328 260 11 0
79 569 -222 0
-699 -133 494 0
443 501 -61 0
-131 -504 26 0
705 152 504 0
-123 234 -144 0
205 -80 -774 0
279 -603 -696 0
-259 -787 -169 0
698 -190 494 0
430 771 712 0
631 -245 -699 0
261 -108 -497 0
-558 -281 115 0
-679 732 -791 0
-37 -465 760 0
628 183 -413 0
-416 -435 -788 0
351 171 453 0
354 774 -503 0
-637 648 -536 0
-704 502 -70 0
183 -731 58 0
-553 31 -318 0
735 475 -85 0
-8 389 81 0
-637 -772 -669 0
776 -68 -312 0
275 406 -573 0
473 -248 653 0
-717 -757 -785 0
-266 -153 -467 0
-573 7 -644 0
-306 -410 494 0
-81 -556 -518 0
671 764 -367 0
186 -673 -757 0
-400 173 -423 0
-524 289 -798 0
-476 -635 363 0
-531 662 -488 0
291 97 -570 0
-545 416 613 0
663 -340 -431 0
-486 355 259 0
140 743 -424 0
545 540 -378 0
740 223 -562 0
-63 -510 87 0
64 -591 534 0
428 778 -29 0
331 162 -56 0
-325 -496 -296 0
6 -593 340 0
-165 -151 23 0
-159 704 -427 0
-354 699 -544 0
124 -531 475 0
-443 269 56 0
-636 260 278 0
-453 -392 22 0
552 -702 -397 0
334 152 -65 0
-386 588 -126 0
666 -697 -657 0
528 229 594 0
256 353 758 0
-574 -696 -395 0
278 -526 619 0
-545 285 -775 0
94 -729 -235 0
-60 -654 -632 0
-162 -82 122 0
-543 -455 -81 0
-134 340 -146 0
16 -562 -794 0
120 -186 166 0
-729 -640 -782 0
244 764 709 0
568 684 -92 0
-771 -271 36 0
273 -689 -335 0
542 512 112 0
18 -331 -573 0
-683 697 -604 0
-622 -601 -119 0
265 42 220 0
240 542 -111 0
-772 -695 -61 0
-330 -95 -398 0
601 604 -278 0
-194 297 518 0
473 -186 -349 0
187 682 140 0
580 142 -235 0
510 -546 -585 0
-601 -305 353 0
-700 -798 471 0
54 -264 612 0
-368 -332 -133 0
-776 239 -167 0
330 -359 291 0
-544 263 -193 0
-576 278 136 0
-395 -109 1 0
603 348 -149 0
481 -636 -155 0
-323 249 -464 0
-238 506 91 0
361 272 -119 0
586 -245 262 0
-385 41 -29 0
-213 -411 389 0
236 -621 17 0
399 -657 -200 0
403 -248 -569 0
324 90 673 0
599 698 124 0
444 -636 143 0
-368 174 -761 0
-87 -46 49 0
628 22 -658 0
238 420 -10 0
-559 482 605 0
-459 165 179 0
-352 -794 -591 0
154 115 -448 0
628 -765 -225 0
-114 -536 -179 0
-507 -536 -74 0
521 759 43 0
-157 -640 -492 0
490 -600 -677 0
-761 200 -404 0
-639 -101 637 0
-518 -688 250 0
-498 -351 529 0
791 -28 -54 0
36 430 46 0
-249 606 -384 0
638 517 -186 0
682 598 470 0
752 -100 -772 0
136 -216 -542 0
-522 -563 -361 0
559 734 -680 0
-187 -488 -214 0
119 -337 34 0
-174 744 -639 0
333 -530 -431 0
182 99 24 0
-280 -142 132 0
-210 119 -16 0
-458 771 -708 0
82 -286 698 0
-303 547 522 0
463 -94 624 0
-236 -29 -720 0
244 -498 11 0
240 -495 568 0
72 134 126 0
179 518 96 0
-479 334 323 0
208 -260 399 0
3 -637 -181 0
626 -732 -404 0
-106 -572 -717 0
95 -46 -452 0
705 -104 167 0
-786 133 45 0
-168 407 512 0
624 -734 -188 0
687 -234 -201 0
-572 623 289 0
148 -61 -247 0
-717 -398 -538 0
-593 -719 20 0
-385 520 -381 0
374 -496 -288 0
-395 -108 -580 0
-746 -453 459 0
645 -400 750 0
706 -396 71 0
-610 -783 131 0
206 523 -329 0
251 129 -476 0
515 -99 82 0
191 685 713 0
-245 275 -39 0
47 180 -401 0
-645 94 -119 0
81 745 -61 0
-243 637 119 0
355 -395 575 0
679 6 -427 0
-780 -794 254 0
-579 732 413 0
434 -409 -306 0
-247 -284 605 0
373 127 531 0
550 175 -694 0
755 -652 -434 0
-10 530 690 0
-762 184 243 0
691 -373 -574 0
-604 -524 259 0
-123 -105 -568 0
444 -270 -112 0
21 635 -514 0
-495 556 201 0
-178 -102 778 0
-417 -47 -604 0
-282 254 -114 0
-703 694 7 0
-168 410 94 0
15 586 714 0
425 751 -686 0
-139 -765 -208 0
-669 48 691 0
-72 -474 -181 0
130 52 -87 0
310 198 -117 0
-90 -282 -696 0
600 -215 -612 0
-492 266 121 0
638 -659 -508 0
-41 -635 500 0
320 438 -245 0
-160 265 377 0
359 -6 -565 0
-642 785 265 0
-600 -62 272 0
620 471 482 0
-529 -219 506 0
36 -450 169 0
217 364 637 0
124 466 430 0
161 -322 -544 0
-119 -15 -275 0
-543 570 607 0
31 -349 -550 0
-508 666 773 0
578 370 708 0
-650 784 511 0
679 -535 -74 0
547 -669 175 0
-460 625 -225 0
-656 -423 313 0
-732 613 774 0
-765 -468 447 0
-557 -536 -590 0
-597 369 789 0
-584 -383 -409 0
230 378 -586 0
-367 147 -1 0
223 327 -743 0
-718 -305 215 0
196 -221 118 0
-268 -460 -535 0
-652 675 201 0
-749 433 -407 0
470 125 -23 0
699 -53 789 0
-68 578 -437 0
506 -614 -547 0
150 -118 -293 0
-794 189 -660 0
-77 569 -65 0
-145 185 708 0
-291 58 -205 0
-791 717 321 0
100 305 -276 0
-80 308 -434 0
-186 5 271 0
319 9 -642 0
500 367 300 0
443 234 -697 0
550 -744 -328 0
35 523 -425 0
595 -660 204 0
569 478 103 0
279 -793 -492 0
645 -23 -344 0
182 -537 -549 0
737 -775 -361 0
81 -573 284 0
273 -505 -596 0
-352 -773 419 0
376 -551 515 0
-143 170 498 0
-161 24 -660 0
-631 -265 232 0
-648 -540 799 0
-532 -464 244 0
505 760 -630 0
372 479 -294 0
-558 204 173 0
-732 -462 304 0
276 457 -691 0
-692 371 -697 0
-590 -754 380 0
411 269 368 0
767 718 166 0
-331 -332 266 0
76 -33 -687 0
588 192 289 0
425 -366 -387 0
455 -187 -173 0
-298 -671 -441 0
188 -67 -540 0
-165 -222 -3 0
-494 -594 -319 0
-408 733 -190 0
-648 499 736 0
272 265 646 0
269 -762 187 0
-15 477 140 0
275 605 678 0
-314 -78 797 0
410 494 173 0
-695 -599 -705 0
789 15 -286 0
-719 403 -497 0
-654 174 -56 0
-724 542 -9 0
586 -709 132 0
-797 759 468 0
-314 388 -453 0
-129 406 576 0
277 -747 -725 0
-261 556 151 0
141 -615 -636 0
16 578 -637 0
400 -758 -492 0
677 201 105 0
61 393 229 0
-65 776 294 0
-30 -265 -538 0
772 -667 -153 0
-265 -268 739 0
759 -1 487 0
613 176 186 0
-363 521 346 0
64 -620 -399 0
291 -107 80 0
118 -306 -522 0
-171 731 291 0
-30 -103 -182 0
91 -43 -578 0
206 334 -150 0
-229 -242 617 0
375 769 723 0
737 44 91 0
-313 -512 212 0
729 -658 -434 0
610 576 -411 0
-318 27 -203 0
693 538 -115 0
-524 633 654 0
-733 -458 -380 0
-102 -286 -327 0
-473 256 611 0
-415 -545 352 0
-623 -194 659 0
233 -198 -205 0
128 -758 383 0
151 410 409 0
-789 74 60 0
-690 274 -376 0
27 793 -563 0
-799 531 292 0
22 -619 338 0
546 -66 117 0
-406 -759 714 0
-154 181 -585 0
-690 -520 82 0
663 -508 463 0
-141 510 -171 0
-232 -634 -485 0
-221 -101 -633 0
-109 138 -128 0
65 -189 29 0
625 -645 -435 0
739 658 159 0
-298 -119 747 0
770 366 -549 0
-339 328 -129 0
800 303 -627 0
556 -537 294 0
-321 91 744 0
-3 -681 641 0
408 -683 273 0
737 -287 -272 0
108 -356 -638 0
71 -327 90 0
-720 742 563 0
-570 246 -180 0
-228 -439 758 0
-39 -182 -387 0
-162 -786 -395 0
85 29 755 0
194 -658 300 0
97 -799 -401 0
89 -494 334 0
-561 -393 625 0
-310 -73 272 0
-573 -286 100 0
-254 497 -134 0
598 447 306 0
-302 607 451 0
610 751 99 0
-242 -775 -136 0
121 90 171 0
-323 678 50 0
547 27 469 0
-494 748 -615 0
663 590 -555 0
-425 334 665 0
465 61 -410 0
77 552 -131 0
730 -299 208 0
-211 -784 636 0
77 634 -786 0
-316 -688 285 0
353 550 403 0
567 -780 -154 0
145 -498 -319 0
79 52 278 0
534 -127 188 0
-695 -795 147 0
632 93 -309 0
523 33 -671 0
406 -119 374 0
627 582 317 0
-781 184 -567 0
189 -77 -686 0
-702 -52 559 0
738 644 -343 0
-448 -600 729 0
237 612 614 0
-318 -329 603 0
152 -218 -423 0
-153 352 -654 0
387 -469 -595 0
-393 -169 -396 0
-258 699 331 0
331 -133 -736 0
-365 -552 529 0
-729 -683 -253 0
559 -324 -768 0
-769 -489 314 0
44 -333 36 0
-489 715 246 0
-301 636 508 0
-714 -32 154 0
-536 -702 -155 0
-542 176 768 0
-427 -52 -224 0
642 431 -793 0
726 -732 -679 0
401 -229 477 0
543 48 8 0
-317 -677 18 0
-746 353 -51 0
657 -182 -396 0
282 693 752 0
-327 -394 455 0
743 50 204 0
-192 671 514 0
732 377 178 0
-793 -461 557 0
25 757 677 0
-202 70 774 0
-194 707 143 0
-667 -530 -637 0
-618 287 -732 0
-201 535 721 0
-775 -454 -206 0
-150 -366 425 0
-628 178 530 0
678 -322 -53 0
-308 541 549 0
-242 150 191 0
71 -256 428 0
-659 645 55 0
8 -545 758 0
73 720 -339 0
-222 -538 144 0
-330 645 27 0
539 -9 52 0
255 -594 765 0
422 348 -4 0
-720 11 -546 0
457 249 492 0
435 -556 338 0
-168 -586 537 0
-756 -145 392 0
515 345 20 0
-537 -167 458 0
-84 150 -590 0
-193 -286 262 0
-65 -159 -303 0
714 166 -199 0
425 277 -437 0
-532 325 -444 0
-785 -782 393 0
-763 -754 295 0
-402 693 -619 0
15 238 496 0
500 652 -222 0
412 -442 -601 0
208 634 -174 0
559 -236 -767 0
445 123 -447 0
631 106 -647 0
780 -692 -306 0
495 -132 71 0
583 703 -675 0
788 -308 -74 0
-519 -434 287 0
428 442 -64 0
-440 241 -384 0
751 -445 -284 0
255 -179 -137 0
763 729 -492 0
-399 449 289 0
110 618 -496 0
56 -200 20 0
-717 95 -775 0
140 -163 -133 0
651 -318 -598 0
-261 677 -721 0
-446 -41 450 0
-677 335 344 0
-167 582 522 0
-660 694 -496 0
-441 188 -778 0
-26 -674 671 0
127 284 570 0
-388 -600 -400 0
451 -70 21 0
72 -110 -95 0
-101 508 73 0
528 386 593 0
83 -268 526 0
230 288 267 0
516 567 141 0
759 -503 732 0
-120 212 -387 0
-94 -356 588 0
-223 -666 150 0
162 -104 -48 0
328 -611 -673 0
-665 -69 -557 0
207 597 -711 0
432 -82 693 0
314 -576 477 0
244 336 -766 0
-700 736 171 0
149 24 219 0
-113 -717 121 0
770 -610 356 0
767 735 755 0
-778 -616 -437 0
214 770 180 0
63 -430 -178 0
-32 -77 -90 0
-322 436 -275 0
-711 780 767 0
312 -445 501 0
49 92 790 0
175 -83 -189 0
-172 778 -609 0
442 -687 -382 0
179 321 799 0
-136 -602 -367 0
736 225 733 0
-395 360 515 0
758 -141 -782 0
-22 433 -240 0
-789 585 -286 0
108 605 30 0
344 332 203 0
340 -613 43 0
-296 292 582 0
90 317 -722 0
574 652 -386 0
680 219 -751 0
323 -551 -612 0
497 -449 -619 0
591 -639 -618 0
467 -662 -339 0
337 -486 -795 0
434 280 -327 0
-291 -201 597 0
20 -119 372 0
203 -315 493 0
-204 552 351 0
149 -185 -390 0
-117 523 -157 0
17 -757 -235 0
744 -632 -602 0
56 783 632 0
706 -309 202 0
475 128 -66 0
-42 213 -258 0
606 -470 -33 0
470 -678 656 0
-540 -246 -547 0
-226 656 -108 0
-606 382 -344 0
-494 -237 184 0
578 473 -87 0
-481 106 615 0
-756 -581 -583 0
-371 -757 411 0
-551 -736 -762 0
27 -159 144 0
378 723 310 0
-11 506 577 0
-654 -508 -469 0
545 -123 -327 0
-122 -99 288 0
194 -447 390 0
514 -625 77 0
-262 772 379 0
290 -2 213 0
264 485 -118 0
-170 74 767 0
-139 -387 794 0
-158 12 -445 0
-743 76 -61 0
206 -486 509 0
150 -587 -162 0
761 230 660 0
-204 600 -321 0
-63 -212 -323 0
-274 189 -391 0
549 515 123 0
-284 -400 -437 0
-341 -122 -106 0
-440 -157 -80 0
249 657 453 0
-172 -167 403 0
565 -294 -451 0
395 -459 -236 0
704 584 338 0
765 -429 -163 0
6 -324 -494 0
-101 -277 -718 0
269 686 795 0
426 504 660 0
-455 -548 -335 0
-72 701 576 0
-421 -152 -616 0
546 537 -599 0
-401 -141 -203 0
-391 50 781 0
540 404 -595 0
566 394 -169 0
-524 -738 13 0
-271 -109 282 0
426 382 792 0
201 -310 355 0
623 -319 -733 0
-81 -757 485 0
-737 48 -492 0
-119 120 -568 0
-775 -253 -373 0
-384 -313 -597 0
502 -605 505 0
682 308 -506 0
460 392 -467 0
-467 -527 511 0
-563 -109 740 0
-95 210 -598 0
-516 -734 187 0
503 -230 792 0
-168 571 -743 0
-492 657 758 0
234 572 -227 0
-442 -761 -491 0
289 -164 -499 0
632 -571 -71 0
620 543 -344 0
199 -442 617 0
386 733 -34 0
599 -694 -394 0
528 -190 137 0
282 609 -280 0
-223 -612 762 0
-169 -142 -202 0
-465 60 -229 0
334 555 -781 0
431 -157 -555 0
-105 561 -132 0
738 -194 636 0
596 -63 -532 0
584 -357 -520 0
12 -645 713 0
-277 336 -326 0
-329 333 290 0
-393 -343 -785 0
-746 -35 -75 0
-240 684 -16 0
-235 617 66 0
429 438 278 0
163 -536 465 0
-706 -274 -402 0
355 686 -25 0
272 -565 542 0
-260 -601 -193 0
-84 325 596 0
-797 -544 99 0
676 -702 185 0
-511 -236 368 0
243 407 129 0
-559 466 -119 0
-744 -763 682 0
-552 -169 301 0
225 -344 -589 0
83 -303 -108 0
-117 -710 214 0
426 -98 -622 0
-155 -336 -319 0
-547 -462 -787 0
302 772 -450 0
-101 -47 -39 0
793 556 12 0
-323 -754 437 0
646 -200 12 0
571 -167 786 0
80 -298 -224 0
-106 555 402 0
796 -626 789 0
-616 476 -144 0
-726 -702 -718 0
403 540 406 0
287 -503 -539 0
726 410 492 0
580 -650 -604 0
11 -211 -360 0
-361 -279 -482 0
475 432 -259 0
-606 -508 340 0
-268 -224 -507 0
693 -797 -5 0
774 189 540 0
327 -631 -201 0
580 -441 502 0
-104 419 -122 0
-713 -10 347 0
219 -492 -446 0
680 -15 -617 0
20 597 173 0
-87 572 -216 0
185 -171 -458 0
304 792 633 0
794 104 -106 0
-235 -118 -373 0
-29 225 723 0
316 -405 168 0
-210 -287 -769 0
-598 668 -594 0
-663 -176 -607 0
92 352 240 0
-302 222 -38 0
215 152 689 0
56 263 248 0
285 159 -137 0
229 269 763 0
261 -368 -257 0
55 617 -671 0
613 -399 -358 0
520 -13 -235 0
234 -569 -610 0
126 293 121 0
-588 348 -465 0
-236 -394 219 0
660 515 -207 0
-41 -481 -390 0
-788 71 754 0
-136 -188 320 0
467 -522 721 0
-781 242 -584 0
669 451 -304 0
-756 670 -95 0
500 702 -252 0
568 -274 -692 0
-339 -449 712 0
-365 -534 -536 0
190 -590 -328 0
716 -425 79 0
-210 -19 337 0
-382 736 364 0
-409 -99 669 0
-538 146 -54 0
-492 373 -255 0
-731 -122 222 0
-66 717 291 0
-790 381 -198 0
-94 112 -46 0
87 50 -101 0
610 -188 -252 0
255 -448 586 0
527 121 80 0
-12 347 533 0
-580 -636 190 0
-684 365 80 0
750 528 140 0
381 261 -617 0
761 130 -51 0
550 -180 30 0
-449 -220 308 0
-281 -542 -349 0
-283 732 231 0
465 -700 159 0
-566 395 -226 0
-102 612 -199 0
240 284 288 0
539 -216 98 0
-739 -578 120 0
-72 745 -630 0
762 107 -376 0
-670 279 122 0
393 -523 -331 0
101 -217 577 0
-772 -115 -788 0
100 39 -189 0
177 661 85 0
-550 395 514 0
-32 -301 388 0
-144 79 365 0
-229 -669 249 0
800 -418 182 0
755 -312 -679 0
-504 -120 178 0
419 -391 782 0
-97 436 -424 0
687 761 -106 0
-525 -668 309 0
552 478 -562 0
412 671 -735 0
-408 -590 -148 0
312 -461 774 0
-525 -384 -586 0
379 33 -520 0
456 -641 753 0
-723 391 -581 0
675 577 -502 0
545 -527 -423 0
719 788 -472 0
-653 381 -556 0
784 -24 -127 0
-144 -798 134 0
-454 -16 -205 0
59 -115 -669 0
255 65 -608 0
792 229 -447 0
-369 -252 84 0
658 672 782 0
-776 -739 507 0
-712 72 -428 0
460 -697 -491 0
158 -113 415 0
209 -184 738 0
450 45 -486 0
204 -373 -797 0
-98 516 -47 0
-50 231 112 0
493 -130 -200 0
527 786 495 0
-595 -282 306 0
189 379 -469 0
668 -21 -207 0
-472 -600 -501 0
287 693 156 0
-262 -628 309 0
-632 111 147 0
-149 -436 81 0
201 413 164 0
-552 8 90 0
308 -650 -675 0
-15 110 -289 0
-709 421 161 0
94 -445 109 0
-334 33 -47 0
151 430 79 0
-711 765 -223 0
753 -114 524 0
261 30 519 0
-377 -559 486 0
334 -346 6 0
-180 675 -668 0
147 1 226 0
-291 330 455 0
238 -716 157 0
-642 462 381 0
769 100 -61 0
129 -538 -664 0
-180 -682 278 0
-310 -228 263 0
-502 -103 -326 0
-689 373 -227 0
279 -571 -624 0
322 625 -632 0
-110 -500 538 0
-533 -615 -54 0
-481 -356 -618 0
-539 663 -700 0
-229 203 58 0
437 -599 -388 0
687 242 776 0
281 -799 -671 0
-611 291 337 0
-663 668 157 0
-435 522 67 0
772 639 609 0
-631 -249 -517 0
622 29 -444 0
490 -244 424 0
-142 561 143 0
-789 -602 -56 0
-389 -387 350 0
163 477 -447 0
-482 746 203 0
-743 -551 407 0
653 288 202 0
-208 502 419 0
-304 -337 -656 0
68 -211 117 0
-643 93 -789 0
-378 -756 224 0
761 141 252 0
-711 -628 338 0
-281 -1 775 0
525 105 -577 0
-264 192 -256 0
85 -212 525 0
-230 436 741 0
-675 -412 413 0
424 -160 312 0
24 636 -38 0
175 525 385 0
-577 415 775 0
-427 568 -266 0
114 -54 636 0
78 550 690 0
-501 -426 541 0
-67 -356 500 0
167 126 89 0
662 -790 664 0
152 -234 -790 0
637 -94 345 0
-651 536 240 0
441 640 -595 0
-82 -245 -528 0
21 -448 492 0
580 -235 738 0
-415 30 668 0
235 477 691 0
-544 3 321 0
758 -785 767 0
377 -532 -386 0
-101 -250 549 0
-334 375 -246 0
-90 -608 -701 0
-174 -292 -213 0
758 -699 -72 0
623 68 476 0
559 -449 203 0
-498 333 -194 0
275 -382 -384 0
-418 792 307 0
-290 -428 -210 0
-173 342 -505 0
131 7 -628 0
-130 373 -17 0
636 230 -674 0
331 584 255 0
-324 766 583 0
-125 39 800 0
166 -45 447 0
-198 -186 20 0
328 126 558 0
-143 525 -171 0
-460 -518 -89 0
203 -11 -188 0
-519 -175 -719 0
404 708 -602 0
285 -520 -406 0
-418 -758 -361 0
640 639 730 0
-190 637 -184 0
57 779 -576 0
43 363 224 0
-737 -650 -55 0
-188 733 -778 0
-650 30 -373 0
152 -126 692 0
383 -361 -193 0
-318 544 433 0
755 -181 -661 0
-666 424 -228 0
-527 433 -227 0
-10 -105 -654 0
501 511 187 0
157 647 -356 0
79 -189 468 0
399 752 -600 0
-654 799 -426 0
125 -228 -157 0
-215 -426 -719 0
-41 -679 -78 0
-279 -794 305 0
282 -292 162 0
-159 -726 312 0
-178 488 204 0
-517 -357 215 0
-691 -701 340 0
-780 373 -369 0
606 320 -520 0
-661 542 -152 0
642 50 477 0
600 319 561 0
-456 10 -254 0
-281 228 -194 0
-153 -749 -441 0
654 540 -300 0
-282 614 -348 0
-577 393 746 0
-659 -56 393 0
114 598 95 0
-66 -645 7 0
61 -751 359 0
745 -658 -609 0
-567 -360 -251 0
731 -636 -246 0
26 -520 179 0
445 17 -710 0
-718 -653 99 0
-110 553 498 0
776 -737 763 0
423 506 -59 0
-504 718 404 0
-184 -743 106 0
198 504 -791 0
-394 316 653 0
175 -370 729 0
188 776 481 0
-82 374 -627 0
-136 595 -215 0
-706 411 -707 0
-347 -635 322 0
-740 203 -563 0
505 -319 -579 0
-221 -37 -563 0
-377 -231 -34 0
325 -75 -400 0
-459 -364 -639 0
-442 650 603 0
570 120 -582 0
-102 561 472 0
37 686 -137 0
113 429 -19 0
619 526 347 0
-526 393 -474 0
-643 -319 -432 0
-25 700 -464 0
344 626 680 0
-95 -293 -480 0
101 708 -212 0
149 606 -466 0
-144 -167 -770 0
-445 34 638 0
-597 -686 -26 0
262 293 660 0
371 -132 -535 0
-200 -510 498 0
665 -646 331 0
-158 120 -7 0
704 -559 588 0
531 262 -504 0
-404 143 291 0
181 -554 749 0
-788 663 -695 0
-797 102 -115 0
-413 353 -620 0
281 347 -79 0
696 639 -43 0
-55 615 238 0
-177 -151 -564 0
737 64 778 0
-708 -606 -184 0
191 -212 -196 0
323 -797 -103 0
-365 -737 -594 0
680 676 -451 0
-277 43 -740 0
-174 485 -63 0
-734 796 -402 0
113 -252 -19 0
588 -634 716 0
212 -634 -277 0
722 254 382 0
746 350 -540 0
-207 -1 -786 0
250 -162 -141 0
207 106 176 0
104 254 350 0
-609 -537 -503 0
-338 -780 454 0
26 138 77 0
-150 -233 -497 0
-142 -280 -410 0
667 5 -223 0
410 249 -491 0
500 763 558 0
191 -87 580 0
518 55 -717 0
446 -327 783 0
-459 583 -799 0
-449 445 -86 0
-70 748 -244 0
-638 239 655 0
596 293 641 0
317 -216 -747 0
107 517 -453 0
724 -43 -690 0
310 321 332 0
-674 449 -515 0
-142 416 273 0
747 350 -164 0
599 -722 231 0
92 379 288 0
-291 532 115 0
695 187 -504 0
628 -303 -451 0
207 174 -202 0
770 709 479 0
-345 207 204 0
186 338 -579 0
-552 -113 -131 0
700 -314 762 0
-482 -327 770 0
-83 320 -465 0
-672 -301 367 0
-353 69 656 0
-606 105 201 0
6 217 -247 0
-645 35 -509 0
356 724 693 0
537 -473 -602 0
-789 681 738 0
-136 574 -455 0
-631 485 545 0
483 -519 724 0
-324 298 342 0
-600 537 325 0
786 642 367 0
674 358 46 0
-160 -426 -341 0
-538 173 195 0
151 -191 -121 0
357 -726 -734 0
-541 368 -61 0
416 520 -360 0
557 625 7 0
-611 551 744 0
616 190 578 0
-80 -746 -740 0
666 65 -451 0
740 506 683 0
304 -588 284 0
720 121 538 0
-150 634 -275 0
-735 282 618 0
763 372 13 0
-531 -656 -597 0
-318 -339 -439 0
557 677 18 0
-501 -129 -404 0
-687 -768 227 0
-46 -61 -474 0
98 605 68 0
-167 520 -135 0
-73 56 428 0
-499 -765 -699 0
384 796 -365 0
-92 -205 78 0
-583 688 -296 0
689 368 205 0
-794 278 -388 0
687 400 -604 0
-418 650 -294 0
374 -254 201 0
-4 371 601 0
-443 -698 -202 0
-401 743 572 0
-164 -141 139 0
707 -746 -257 0
-553 226 277 0
799 -424 724 0
303 641 676 0
-682 681 83 0
-581 -151 -84 0
166 328 517 0
-394 214 667 0
665 106 -764 0
-135 382 -764 0
25 492 -186 0
676 -711 591 0
-699 178 -291 0
-24 490 505 0
781 -739 -127 0
-285 379 67 0
338 -443 -295 0
-385 666 -420 0
-728 100 -720 0
328 -629 104 0
44 -518 -328 0
87 324 677 0
103 18 295 0
-131 740 308 0
66 -594 -340 0
787 -232 728 0
26 579 -625 0
676 560 134 0
115 571 485 0
-465 -160 793 0
-735 -606 633 0
-735 646 -492 0
682 401 -58 0
214 -800 -154 0
80 -614 -463 0
59 -735 470 0
549 513 103 0
-528 333 141 0
601 -11 426 0
60 274 754 0
-86 -587 510 0
742 374 19 0
-178 286 -332 0
-591 362 441 0
-135 -473 -462 0
-315 295 -364 0
198 -217 393 0
-699 -480 435 0
353 -193 421 0
7 658 -699 0
-16 -739 -197 0
-773 283 -740 0
402 -175 -750 0
181 450 322 0
611 413 -408 0
702 404 -127 0
532 620 485 0
492 -242 798 0
92 590 633 0
-111 669 -413 0
160 -130 -191 0
-636 -739 -280 0
248 591 733 0
-102 73 374 0
541 -398 554 0
193 -797 534 0
46 538 10 0
-539 -581 -398 0
542 -126 402 0
51 -540 71 0
29 335 -595 0
-198 316 -561 0
368 698 2 0
-788 244 -127 0
-336 -408 -746 0
108 -716 359 0
-272 -130 -142 0
304 -604 -54 0
20 -1 632 0
333 608 556 0
123 665 580 0
532 -656 -626 0
6 108 487 0
482 -107 -628 0
-236 347 562 0
-15 463 136 0
29 -586 -33 0
342 433 756 0
-206 -411 -20 0
69 552 -672 0
-251 -343 576 0
256 84 -10 0
758 283 -54 0
462 -764 639 0
-458 381 769 0
315 -421 494 0
-377 -653 567 0
34 142 -55 0
-709 -266 516 0
525 -422 -720 0
732 -569 -84 0
-503 252 -782 0
-130 760 761 0
62 635 -217 0
488 -768 573 0
8 -712 -285 0
461 -607 643 0
183 280 -266 0
72 697 -80 0
-296 7 -19 0
-372 233 730 0
-152 -144 779 0
-91 -618 -611 0
525 -400 521 0
741 767 -359 0
-599 -421 -373 0
350 613 -677 0
739 143 -607 0
-520 681 680 0
109 608 -240 0
770 395 -772 0
749 590 383 0
-265 93 650 0
-648 -460 99 0
741 652 -589 0
24 -643 609 0
-183 52 -652 0
-654 361 -61 0
-82 -690 -388 0
-763 -652 147 0
239 64 125 0
-131 -134 109 0
144 394 187 0
-136 644 710 0
-237 6 217 0
650 -47 -219 0
48 -318 -442 0
7 690 731 0
690 -276 489 0
-217 717 213 0
183 -546 165 0
664 -639 543 0
-740 251 -68 0
519 747 -600 0
-436 -618 389 0
-528 -98 -547 0
-550 -340 -242 0
76 255 685 0
593 -509 457 0
-723 176 469 0
-323 -43 -760 0
-313 -553 -253 0
-126 428 -235 0
-601 787 -151 0
-28 -700 -262 0
712 369 608 0
-91 693 -481 0
-129 18 -137 0
617 20 106 0
595 -767 -562 0
74 -582 -218 0
143 292 515 0
255 -510 602 0
542 510 -152 0
546 521 -198 0
-78 273 224 0
-228 -715 -766 0
-402 -317 106 0
187 -603 542 0
-316 -160 363 0
-114 18 731 0
380 221 567 0
183 345 226 0
565 739 692 0
747 -257 -457 0
-451 -602 -710 0
-561 40 613 0
446 -204 443 0
198 -347 519 0
470 254 550 0
-355 -744 -481 0
351 -578 -749 0
547 -56 -590 0
777 -376 -196 0
-193 185 -641 0
-563 -730 -748 0
522 -39 -150 0
658 -782 -91 0
-385 -524 -328 0
-230 509 437 0
-103 138 557 0
268 336 50 0
32 689 -575 0
-753 -396 -483 0
417 -472 192 0
6 -708 -746 0
579 163 -252 0
-74 542 -735 0
-664 -742 277 0
496 429 -68 0
655 -72 -678 0
90 -623 -123 0
232 -233 578 0
282 -501 -563 0
-747 -652 463 0
-755 -564 259 0
-301 -252 308 0
-374 508 -346 0
-544 519 -297 0
572 -670 141 0
193 -447 -198 0
-631 576 -457 0
195 43 -187 0
-337 -345 -405 0
227 -782 -387 0
-457 403 365 0
229 742 -775 0
707 -204 132 0
222 797 -435 0
401 -286 -605 0
195 -644 42 0
120 -66 -675 0
-67 -59 713 0
-3 567 -755 0
-428 673 -552 0
263 294 24 0
-350 -82 410 0
6 -422 405 0
-423 -38 -738 0
-640 552 -620 0
-196 -183 -34 0
-347 586 -483 0
-338 71 -333 0
-250 -448 -160 0
-117 511 -326 0
96 -205 538 0
237 44 266 0
380 255 -163 0
599 335 468 0
-184 -262 508 0
-588 696 264 0
235 398 531 0
-310 -362 610 0
454 500 -455 0
563 758 -316 0
345 -267 -183 0
615 27 -132 0
-470 734 -62 0
-484 -167 -704 0
-143 390 275 0
549 428 -548 0
23 -185 -732 0
409 -439 -58 0
710 -740 316 0
797 508 728 0
533 -25 500 0
201 -442 256 0
366 -433 -567 0
-138 -711 345 0
121 -94 534 0
-571 -268 756 0
-423 -462 440 0
5 -88 -784 0
514 -749 -614 0
-660 553 -599 0
574 391 120 0
-333 541 -691 0
444 -649 711 0
362 -182 458 0
571 608 -417 0
-207 -89 593 0
-534 -495 651 0
-439 351 -548 0
-206 301 682 0
413 -620 -97 0
-188 -789 208 0
-716 285 -743 0
382 510 252 0
-773 728 -561 0
143 -666 231 0
-255 -298 798 0
-630 -178 -422 0
-380 -87 -78 0
-693 45 557 0
72 94 228 0
-791 -479 309 0
-753 523 14 0
40 -642 -354 0
-786 211 -445 0
-800 609 -563 0
-232 538 568 0
160 277 -554 0
-381 162 769 0
-502 -617 190 0
784 125 492 0
-459 -399 721 0
650 183 -59 0
-780 -2 -764 0
-653 666 157 0
-117 183 -90 0
-705 -768 213 0
730 -478 709 0
-767 -472 -420 0
434 -365 62 0
210 23 645 0
88 -555 630 0
-723 617 481 0
-529 106 -496 0
699 -65 -534 0
372 -320 567 0
49 -733 -460 0
-577 231 439 0
381 504 306 0
-182 -750 76 0
-485 398 684 0
483 353 666 0
-248 659 -636 0
-644 -369 287 0
612 -146 -154 0
276 294 -441 0
-219 -245 231 0
411 218 -283 0
115 -263 -265 0
469 673 -223 0
-334 281 512 0
-272 219 796 0
-395 -643 -61 0
187 682 82 0
-352 39 -358 0
197 -371 798 0
412 21 -708 0
-799 405 798 0
288 282 553 0
390 -504 -693 0
-569 -365 663 0
540 -84 604 0
182 -292 396 0
99 -11 -35 0
-496 489 628 0
-310 -385 525 0
57 -460 -142 0
-328 -123 399 0
-578 -768 -434 0
-35 437 580 0
210 98 758 0
99 16 122 0
-66 27 361 0
328 387 -206 0
-524 181 -361 0
-621 88 66 0
-242 -81 -261 0
-518 -320 556 0
572 -689 -134 0
748 203 525 0
113 197 51 0
-549 -2 -3 0
669 -670 575 0
-376 -520 -323 0
-524 -233 61 0
-661 387 -136 0
-543 247 285 0
-459 56 738 0
-639 -744 -380 0
652 -707 -650 0
-111 773 602 0
180 -788 -735 0
-413 591 -619 0
-233 -560 -172 0
-139 -404 177 0
-476 -538 754 0
617 -643 -705 0
-357 -786 31 0
146 -371 -623 0
-201 661 -705 0
-494 -217 273 0
-507 -59 -723 0
274 231 -249 0
785 165 -341 0
-188 589 -197 0
-188 73 366 0
-516 -187 -276 0
-452 75 -68 0
-785 -183 -599 0
-439 -385 -690 0
-783 754 -626 0
138 797 -86 0
-438 -537 91 0
317 251 171 0
-106 406 -345 0
-90 -651 483 0
-216 594 -45 0
753 -328 -327 0
286 -340 -587 0
140 -276 55 0
-179 543 138 0
-508 521 355 0
79 -339 -476 0
226 -443 -320 0
-585 -562 178 0
788 360 23 0
-643 -628 -352 0
322 665 705 0
34 98 530 0
752 411 -378 0
-327 -329 -375 0
60 -352 -219 0
-313 -674 -361 0
511 -480 -75 0
677 -614 -238 0
-235 -54 516 0
708 -96 436 0
692 -734 674 0
722 572 -625 0
404 171 529 0
-739 270 -309 0
-43 -642 -137 0
796 -61 503 0
-605 -549 -524 0
492 197 349 0
313 314 -428 0
414 -392 570 0
-493 -119 344 0
633 -283 459 0
717 294 275 0
-656 -472 734 0
-303 617 540 0
305 71 -381 0
266 -367 -283 0
-237 -76 593 0
-559 -798 -786 0
-688 231 -385 0
755 234 196 0
-290 431 615 0
243 324 148 0
493 -103 -402 0
737 728 28 0
-736 -371 -465 0
-439 -541 674 0
408 -487 -111 0
-258 646 52 0
427 -238 -369 0
-293 -635 544 0
-521 -571 621 0
140 82 -757 0
-343 492 608 0
-679 -114 -668 0
-410 770 -665 0
268 -672 530 0
610 -28 -641 0
-482 145 -403 0
-796 565 193 0
374 135 329 0
320 592 -765 0
-678 554 162 0
-659 629 457 0
134 -555 303 0
69 -471 425 0
582 -474 276 0
-669 497 154 0
73 493 -668 0
-380 732 -447 0
214 -97 -105 0
612 773 273 0
23 -315 373 0
439 -732 744 0
178 -481 616 0
-579 180 18 0
346 -257 -144 0
251 -111 323 0
-666 456 -359 0
-77 711 776 0
-285 471 569 0
-633 -777 548 0
5 -729 81 0
-564 -304 759 0
-358 -254 595 0
-180 -569 -430 0
618 657 736 0
207 259 130 0
-614 -565 -724 0
58 693 154 0
728 -61 -60 0
-784 307 -370 0
-285 39 191 0
-377 -485 -40 0
683 744 -498 0
-247 -614 -478 0
-351 652 638 0
-77 -3 -475 0
624 398 -477 0
-653 -202 -795 0
306 134 141 0
380 -451 -592 0
62 -561 -487 0
-520 128 616 0
556 -97 383 0
-145 -662 66 0
534 -176 -562 0
-470 -407 41 0
-797 -691 322 0
-303 -736 -334 0
222 -461 -299 0
369 -597 -149 0
-342 483 426 0
587 -337 -251 0
35 295 582 0
186 -136 345 0
260 470 -764 0
543 -153 -109 0
370 741 770 0
-226 119 446 0
373 94 -784 0
-691 288 -655 0
-662 -354 -517 0
-706 563 601 0
126 32 733 0
-294 -145 -447 0
-440 443 566 0
-680 767 -388 0
-394 -171 435 0
-349 -20 727 0
-645 -396 -66 0
-198 -679 236 0
453 -181 529 0
-230 724 704 0
10 -706 -715 0
89 650 577 0
736 -489 699 0
-378 -82 -629 0
-763 582 -662 0
-534 687 -563 0
-38 398 -764 0
-29 588 144 0
-510 -715 358 0
648 493 727 0
676 -550 -116 0
-324 -549 754 0
150 -31 345 0
289 253 -597 0
5 659 303 0
-706 423 -148 0
-769 -341 -546 0
-350 -526 760 0
-241 -357 619 0
-53 -526 -579 0
223 359 -124 0
299 432 74 0
-419 -532 98 0
-265 334 63 0
-400 -210 188 0
-166 -683 558 0
-600 771 348 0
468 -1 26 0
693 715 111 0
-394 723 -566 0
403 261 722 0
761 754 -357 0
86 724 -462 0
253 643 611 0
317 198 370 0
34 -624 -441 0
364 -649 521 0
-224 -741 794 0
-490 -761 67 0
-289 141 142 0
-386 -368 -621 0
12 -527 148 0
-347 -187 581 0
459 -514 -727 0
588 -138 -83 0
-229 -72 635 0
-52 -505 359 0
290 -386 773 0
-142 106 472 0
366 548 156 0
-218 640 -535 0
435 95 476 0
565 376 549 0
-747 -59 -532 0
-574 799 -155 0
-207 235 -347 0
-637 740 751 0
-797 -344 -274 0
-250 218 -739 0
570 -451 -355 0
26 -383 475 0
129 -565 -505 0
-337 616 -611 0
506 261 501 0
-244 393 -10 0
-355 -132 -102 0
-14 -16 -13 0
-518 -72 263 0
721 -113 606 0
-595 753 374 0
-744 514 -458 0
-268 -242 361 0
-647 -16 458 0
-420 -711 -618 0
-307 -792 463 0
701 -646 -133 0
-420 -19 161 0
-387 614 -496 0
-474 -74 302 0
571 -200 508 0
653 371 13 0
-44 -380 -411 0
280 757 -690 0
629 -764 559 0
253 234 681 0
324 433 -177 0
171 792 -146 0
468 -595 -179 0
-466 -348 -256 0
-119 -667 6 0
-662 635 504 0
122 -121 549 0
-721 587 -552 0
-312 -333 673 0
-28 71 493 0
-77 153 737 0
639 -4 161 0
725 263 -572 0
55 -521 425 0
266 578 -742 0
-466 791 609 0
434 147 689 0
-745 203 -245 0
-314 -411 163 0
-560 474 557 0
-562 -388 -370 0
438 -508 -119 0
-635 -343 641 0
-268 516 626 0
339 -744 -299 0
515 586 409 0
-312 -381 -21 0
-268 -695 -438 0
-372 -789 -320 0
-742 -273 -124 0
315 -781 -77 0
-126 598 -255 0
-259 516 76 0
204 -125 444 0
608 -633 645 0
-797 278 -120 0
167 241 -725 0
-207 282 -555 0
312 489 356 0
-409 -340 -392 0
-408 552 -139 0
-559 243 389 0
499 180 -709 0
-605 361 -210 0
-464 -649 619 0
185 443 272 0
617 -400 330 0
460 294 133 0
-553 -467 -257 0
-44 -128 -187 0
64 -772 424 0
-526 -760 681 0
64 -362 23 0
-414 -220 -796 0
74 -323 240 0
330 577 -335 0
47 603 695 0
-54 -742 705 0
-86 -241 466 0
-496 702 282 0
562 -122 787 0
-530 -341 -329 0
-338 290 3 0
-329 99 -412 0
513 -501 -157 0
-548 -162 328 0
575 698 -119 0
267 -486 -135 0
616 -408 -309 0
-414 41 -202 0
492 -449 -486 0
71 618 -402 0
415 -272 760 0
349 515 732 0
-67 -192 -471 0
531 -756 29 0
233 -118 404 0
533 776 -145 0
785 -570 528 0
567 -485 -482 0
570 590 -312 0
274 -165 228 0
-380 -375 -495 0
-762 563 741 0
799 -261 -91 0
254 -571 -207 0
160 5 295 0
